16
LiTFSI approximate conformer
Li     0.000000     0.000000    -2.800000
N      0.000000     0.000000     0.000000
S     -1.550000     0.000000     1.100000
S      1.550000     0.000000     1.100000
O     -2.350000     1.100000     0.550000
O     -2.350000    -1.100000     0.550000
O      2.350000     1.100000     0.550000
O      2.350000    -1.100000     0.550000
C     -1.550000     0.000000     2.650000
C      1.550000     0.000000     2.650000
F     -1.550000     0.950000     3.450000
F     -1.550000    -0.950000     3.450000
F     -2.500000     0.000000     2.650000
F      1.550000     0.950000     3.450000
F      1.550000    -0.950000     3.450000
F      2.500000     0.000000     2.650000
