         496
  Built with Packmol                                             
  Zn           7.588184        7.588184        5.344736
  Zn          18.277656       18.277656       20.521104
  Zn          18.277656       18.277656        5.344736
  Zn           7.588184        7.588184       20.521104
  Zn          18.277656        7.588184       20.521104
  Zn           7.588184       18.277656        5.344736
  Zn           7.588184       18.277656       20.521104
  Zn          18.277656        7.588184        5.344736
  Zn           5.344736        7.588184        7.588184
  Zn          20.521104       18.277656       18.277656
  Zn           5.344736       18.277656       18.277656
  Zn          20.521104        7.588184        7.588184
  Zn          20.521104       18.277656        7.588184
  Zn           5.344736        7.588184       18.277656
  Zn          20.521104        7.588184       18.277656
  Zn           5.344736       18.277656        7.588184
  Zn           7.588184        5.344736        7.588184
  Zn          18.277656       20.521104       18.277656
  Zn          18.277656        5.344736       18.277656
  Zn           7.588184       20.521104        7.588184
  Zn           7.588184       20.521104       18.277656
  Zn          18.277656        5.344736        7.588184
  Zn          18.277656       20.521104        7.588184
  Zn           7.588184        5.344736       18.277656
  Zn           5.344736       20.521104       20.521104
  Zn          20.521104        5.344736        5.344736
  Zn           5.344736        5.344736        5.344736
  Zn          20.521104       20.521104       20.521104
  Zn          20.521104        5.344736       20.521104
  Zn           5.344736       20.521104        5.344736
  Zn          20.521104       20.521104        5.344736
  Zn           5.344736        5.344736       20.521104
  O            6.466460        6.466460        6.466460
  O           19.399380       19.399380       19.399380
  O           19.399380       19.399380        6.466460
  O            6.466460        6.466460       19.399380
  O           19.399380        6.466460       19.399380
  O            6.466460       19.399380        6.466460
  O            6.466460       19.399380       19.399380
  O           19.399380        6.466460        6.466460
  O            7.269387        9.475899        5.663533
  O           18.596453       16.389941       20.202307
  O           18.596453       16.389941        5.663533
  O            7.269387        9.475899       20.202307
  O           18.596453        9.475899       20.202307
  O            7.269387       16.389941        5.663533
  O            7.269387       16.389941       20.202307
  O           18.596453        9.475899        5.663533
  O            5.663533        7.269387        9.475899
  O           20.202307       18.596453       16.389941
  O            5.663533       18.596453       16.389941
  O           20.202307        7.269387        9.475899
  O           20.202307       18.596453        9.475899
  O            5.663533        7.269387       16.389941
  O           20.202307        7.269387       16.389941
  O            5.663533       18.596453        9.475899
  O            9.475899        5.663533        7.269387
  O           16.389941       20.202307       18.596453
  O           16.389941        5.663533       18.596453
  O            9.475899       20.202307        7.269387
  O            9.475899       20.202307       18.596453
  O           16.389941        5.663533        7.269387
  O           16.389941       20.202307        7.269387
  O            9.475899        5.663533       18.596453
  O            9.475899        7.269387       20.202307
  O           16.389941       18.596453        5.663533
  O           16.389941       18.596453       20.202307
  O            9.475899        7.269387        5.663533
  O            9.475899       18.596453        5.663533
  O           16.389941        7.269387       20.202307
  O           16.389941        7.269387        5.663533
  O            9.475899       18.596453       20.202307
  O            7.269387        5.663533       16.389941
  O           18.596453       20.202307        9.475899
  O           18.596453        5.663533        9.475899
  O            7.269387       20.202307       16.389941
  O           18.596453       20.202307       16.389941
  O            7.269387        5.663533        9.475899
  O            7.269387       20.202307        9.475899
  O           18.596453        5.663533       16.389941
  O            5.663533        9.475899       18.596453
  O           20.202307       16.389941        7.269387
  O            5.663533       16.389941        7.269387
  O           20.202307        9.475899       18.596453
  O           20.202307        9.475899        7.269387
  O            5.663533       16.389941       18.596453
  O           20.202307       16.389941       18.596453
  O            5.663533        9.475899        7.269387
  O            7.269387       22.408819       18.596453
  O           18.596453        3.457021        7.269387
  O           18.596453        3.457021       18.596453
  O            7.269387       22.408819        7.269387
  O           18.596453       22.408819        7.269387
  O            7.269387        3.457021       18.596453
  O            7.269387        3.457021        7.269387
  O           18.596453       22.408819       18.596453
  O            5.663533       20.202307       22.408819
  O           20.202307        5.663533        3.457021
  O            5.663533        5.663533        3.457021
  O           20.202307       20.202307       22.408819
  O           20.202307        5.663533       22.408819
  O            5.663533       20.202307        3.457021
  O           20.202307       20.202307        3.457021
  O            5.663533        5.663533       22.408819
  O            7.269387       18.596453        3.457021
  O           18.596453        7.269387       22.408819
  O           18.596453       18.596453       22.408819
  O            7.269387        7.269387        3.457021
  O           18.596453        7.269387        3.457021
  O            7.269387       18.596453       22.408819
  O            7.269387        7.269387       22.408819
  O           18.596453       18.596453        3.457021
  O            5.663533       22.408819        5.663533
  O           20.202307        3.457021       20.202307
  O            5.663533        3.457021       20.202307
  O           20.202307       22.408819        5.663533
  O           20.202307       22.408819       20.202307
  O            5.663533        3.457021        5.663533
  O           20.202307        3.457021        5.663533
  O            5.663533       22.408819       20.202307
  O           22.408819        5.663533       20.202307
  O            3.457021       20.202307        5.663533
  O            3.457021        5.663533        5.663533
  O           22.408819       20.202307       20.202307
  O           22.408819       20.202307        5.663533
  O            3.457021        5.663533       20.202307
  O            3.457021       20.202307       20.202307
  O           22.408819        5.663533        5.663533
  O           22.408819        7.269387        7.269387
  O            3.457021       18.596453       18.596453
  O            3.457021       18.596453        7.269387
  O           22.408819        7.269387       18.596453
  O           22.408819       18.596453       18.596453
  O            3.457021        7.269387        7.269387
  O            3.457021        7.269387       18.596453
  O           22.408819       18.596453        7.269387
  C            6.466460       10.051905        6.466460
  C           19.399380       15.813935       19.399380
  C           19.399380       15.813935        6.466460
  C            6.466460       10.051905       19.399380
  C           19.399380       10.051905       19.399380
  C            6.466460       15.813935        6.466460
  C            6.466460       15.813935       19.399380
  C           19.399380       10.051905        6.466460
  C            6.466460        6.466460       10.051905
  C           19.399380       19.399380       15.813935
  C            6.466460       19.399380       15.813935
  C           19.399380        6.466460       10.051905
  C           19.399380       19.399380       10.051905
  C            6.466460        6.466460       15.813935
  C           19.399380        6.466460       15.813935
  C            6.466460       19.399380       10.051905
  C           10.051905        6.466460        6.466460
  C           15.813935       19.399380       19.399380
  C           15.813935        6.466460       19.399380
  C           10.051905       19.399380        6.466460
  C           10.051905       19.399380       19.399380
  C           15.813935        6.466460        6.466460
  C           15.813935       19.399380        6.466460
  C           10.051905        6.466460       19.399380
  C            6.466460       22.984825       19.399380
  C           19.399380        2.881015        6.466460
  C           19.399380        2.881015       19.399380
  C            6.466460       22.984825        6.466460
  C           19.399380       22.984825        6.466460
  C            6.466460        2.881015       19.399380
  C            6.466460        2.881015        6.466460
  C           19.399380       22.984825       19.399380
  C            6.466460       19.399380       22.984825
  C           19.399380        6.466460        2.881015
  C            6.466460        6.466460        2.881015
  C           19.399380       19.399380       22.984825
  C           19.399380        6.466460       22.984825
  C            6.466460       19.399380        2.881015
  C           19.399380       19.399380        2.881015
  C            6.466460        6.466460       22.984825
  C           22.984825        6.466460       19.399380
  C            2.881015       19.399380        6.466460
  C            2.881015        6.466460        6.466460
  C           22.984825       19.399380       19.399380
  C           22.984825       19.399380        6.466460
  C            2.881015        6.466460       19.399380
  C            2.881015       19.399380       19.399380
  C           22.984825        6.466460        6.466460
  C            6.466460       11.541131        6.466460
  C           19.399380       14.324709       19.399380
  C           19.399380       14.324709        6.466460
  C            6.466460       11.541131       19.399380
  C           19.399380       11.541131       19.399380
  C            6.466460       14.324709        6.466460
  C            6.466460       14.324709       19.399380
  C           19.399380       11.541131        6.466460
  C            6.466460        6.466460       11.541131
  C           19.399380       19.399380       14.324709
  C            6.466460       19.399380       14.324709
  C           19.399380        6.466460       11.541131
  C           19.399380       19.399380       11.541131
  C            6.466460        6.466460       14.324709
  C           19.399380        6.466460       14.324709
  C            6.466460       19.399380       11.541131
  C           11.541131        6.466460        6.466460
  C           14.324709       19.399380       19.399380
  C           14.324709        6.466460       19.399380
  C           11.541131       19.399380        6.466460
  C           11.541131       19.399380       19.399380
  C           14.324709        6.466460        6.466460
  C           14.324709       19.399380        6.466460
  C           11.541131        6.466460       19.399380
  C            6.466460       24.474051       19.399380
  C           19.399380        1.391789        6.466460
  C           19.399380        1.391789       19.399380
  C            6.466460       24.474051        6.466460
  C           19.399380       24.474051        6.466460
  C            6.466460        1.391789       19.399380
  C            6.466460        1.391789        6.466460
  C           19.399380       24.474051       19.399380
  C            6.466460       19.399380       24.474051
  C           19.399380        6.466460        1.391789
  C            6.466460        6.466460        1.391789
  C           19.399380       19.399380       24.474051
  C           19.399380        6.466460       24.474051
  C            6.466460       19.399380        1.391789
  C           19.399380       19.399380        1.391789
  C            6.466460        6.466460       24.474051
  C           24.474051        6.466460       19.399380
  C            1.391789       19.399380        6.466460
  C            1.391789        6.466460        6.466460
  C           24.474051       19.399380       19.399380
  C           24.474051       19.399380        6.466460
  C            1.391789        6.466460       19.399380
  C            1.391789       19.399380       19.399380
  C           24.474051        6.466460        6.466460
  C            7.324352       12.239172        5.608568
  C           18.541488       13.626668       20.257272
  C           18.541488       13.626668        5.608568
  C            7.324352       12.239172       20.257272
  C           18.541488       12.239172       20.257272
  C            7.324352       13.626668        5.608568
  C            7.324352       13.626668       20.257272
  C           18.541488       12.239172        5.608568
  C            5.608568        7.324352       12.239172
  C           20.257272       18.541488       13.626668
  C            5.608568       18.541488       13.626668
  C           20.257272        7.324352       12.239172
  C           20.257272       18.541488       12.239172
  C            5.608568        7.324352       13.626668
  C           20.257272        7.324352       13.626668
  C            5.608568       18.541488       12.239172
  C           12.239172        5.608568        7.324352
  C           13.626668       20.257272       18.541488
  C           13.626668        5.608568       18.541488
  C           12.239172       20.257272        7.324352
  C           12.239172       20.257272       18.541488
  C           13.626668        5.608568        7.324352
  C           13.626668       20.257272        7.324352
  C           12.239172        5.608568       18.541488
  C           12.239172        7.324352       20.257272
  C           13.626668       18.541488        5.608568
  C           13.626668       18.541488       20.257272
  C           12.239172        7.324352        5.608568
  C           12.239172       18.541488        5.608568
  C           13.626668        7.324352       20.257272
  C           13.626668        7.324352        5.608568
  C           12.239172       18.541488       20.257272
  C            7.324352        5.608568       13.626668
  C           18.541488       20.257272       12.239172
  C           18.541488        5.608568       12.239172
  C            7.324352       20.257272       13.626668
  C           18.541488       20.257272       13.626668
  C            7.324352        5.608568       12.239172
  C            7.324352       20.257272       12.239172
  C           18.541488        5.608568       13.626668
  C            5.608568       12.239172       18.541488
  C           20.257272       13.626668        7.324352
  C            5.608568       13.626668        7.324352
  C           20.257272       12.239172       18.541488
  C           20.257272       12.239172        7.324352
  C            5.608568       13.626668       18.541488
  C           20.257272       13.626668       18.541488
  C            5.608568       12.239172        7.324352
  C            7.324352       25.172092       18.541488
  C           18.541488        0.693748        7.324352
  C           18.541488        0.693748       18.541488
  C            7.324352       25.172092        7.324352
  C           18.541488       25.172092        7.324352
  C            7.324352        0.693748       18.541488
  C            7.324352        0.693748        7.324352
  C           18.541488       25.172092       18.541488
  C            5.608568       20.257272       25.172092
  C           20.257272        5.608568        0.693748
  C            5.608568        5.608568        0.693748
  C           20.257272       20.257272       25.172092
  C           20.257272        5.608568       25.172092
  C            5.608568       20.257272        0.693748
  C           20.257272       20.257272        0.693748
  C            5.608568        5.608568       25.172092
  C            7.324352       18.541488        0.693748
  C           18.541488        7.324352       25.172092
  C           18.541488       18.541488       25.172092
  C            7.324352        7.324352        0.693748
  C           18.541488        7.324352        0.693748
  C            7.324352       18.541488       25.172092
  C            7.324352        7.324352       25.172092
  C           18.541488       18.541488        0.693748
  C            5.608568       25.172092        5.608568
  C           20.257272        0.693748       20.257272
  C            5.608568        0.693748       20.257272
  C           20.257272       25.172092        5.608568
  C           20.257272       25.172092       20.257272
  C            5.608568        0.693748        5.608568
  C           20.257272        0.693748        5.608568
  C            5.608568       25.172092       20.257272
  C           25.172092        5.608568       20.257272
  C            0.693748       20.257272        5.608568
  C            0.693748        5.608568        5.608568
  C           25.172092       20.257272       20.257272
  C           25.172092       20.257272        5.608568
  C            0.693748        5.608568       20.257272
  C            0.693748       20.257272       20.257272
  C           25.172092        5.608568        5.608568
  C           25.172092        7.324352        7.324352
  C            0.693748       18.541488       18.541488
  C            0.693748       18.541488        7.324352
  C           25.172092        7.324352       18.541488
  C           25.172092       18.541488       18.541488
  C            0.693748        7.324352        7.324352
  C            0.693748        7.324352       18.541488
  C           25.172092       18.541488        7.324352
  H            7.984526       11.670408        4.948394
  H           17.881314       14.195432       20.917446
  H           17.881314       14.195432        4.948394
  H            7.984526       11.670408       20.917446
  H           17.881314       11.670408       20.917446
  H            7.984526       14.195432        4.948394
  H            7.984526       14.195432       20.917446
  H           17.881314       11.670408        4.948394
  H            4.948394        7.984526       11.670408
  H           20.917446       17.881314       14.195432
  H            4.948394       17.881314       14.195432
  H           20.917446        7.984526       11.670408
  H           20.917446       17.881314       11.670408
  H            4.948394        7.984526       14.195432
  H           20.917446        7.984526       14.195432
  H            4.948394       17.881314       11.670408
  H           11.670408        4.948394        7.984526
  H           14.195432       20.917446       17.881314
  H           14.195432        4.948394       17.881314
  H           11.670408       20.917446        7.984526
  H           11.670408       20.917446       17.881314
  H           14.195432        4.948394        7.984526
  H           14.195432       20.917446        7.984526
  H           11.670408        4.948394       17.881314
  H           11.670408        7.984526       20.917446
  H           14.195432       17.881314        4.948394
  H           14.195432       17.881314       20.917446
  H           11.670408        7.984526        4.948394
  H           11.670408       17.881314        4.948394
  H           14.195432        7.984526       20.917446
  H           14.195432        7.984526        4.948394
  H           11.670408       17.881314       20.917446
  H            7.984526        4.948394       14.195432
  H           17.881314       20.917446       11.670408
  H           17.881314        4.948394       11.670408
  H            7.984526       20.917446       14.195432
  H           17.881314       20.917446       14.195432
  H            7.984526        4.948394       11.670408
  H            7.984526       20.917446       11.670408
  H           17.881314        4.948394       14.195432
  H            4.948394       11.670408       17.881314
  H           20.917446       14.195432        7.984526
  H            4.948394       14.195432        7.984526
  H           20.917446       11.670408       17.881314
  H           20.917446       11.670408        7.984526
  H            4.948394       14.195432       17.881314
  H           20.917446       14.195432       17.881314
  H            4.948394       11.670408        7.984526
  H            7.984526       24.603328       17.881314
  H           17.881314        1.262512        7.984526
  H           17.881314        1.262512       17.881314
  H            7.984526       24.603328        7.984526
  H           17.881314       24.603328        7.984526
  H            7.984526        1.262512       17.881314
  H            7.984526        1.262512        7.984526
  H           17.881314       24.603328       17.881314
  H            4.948394       20.917446       24.603328
  H           20.917446        4.948394        1.262512
  H            4.948394        4.948394        1.262512
  H           20.917446       20.917446       24.603328
  H           20.917446        4.948394       24.603328
  H            4.948394       20.917446        1.262512
  H           20.917446       20.917446        1.262512
  H            4.948394        4.948394       24.603328
  H            7.984526       17.881314        1.262512
  H           17.881314        7.984526       24.603328
  H           17.881314       17.881314       24.603328
  H            7.984526        7.984526        1.262512
  H           17.881314        7.984526        1.262512
  H            7.984526       17.881314       24.603328
  H            7.984526        7.984526       24.603328
  H           17.881314       17.881314        1.262512
  H            4.948394       24.603328        4.948394
  H           20.917446        1.262512       20.917446
  H            4.948394        1.262512       20.917446
  H           20.917446       24.603328        4.948394
  H           20.917446       24.603328       20.917446
  H            4.948394        1.262512        4.948394
  H           20.917446        1.262512        4.948394
  H            4.948394       24.603328       20.917446
  H           24.603328        4.948394       20.917446
  H            1.262512       20.917446        4.948394
  H            1.262512        4.948394        4.948394
  H           24.603328       20.917446       20.917446
  H           24.603328       20.917446        4.948394
  H            1.262512        4.948394       20.917446
  H            1.262512       20.917446       20.917446
  H           24.603328        4.948394        4.948394
  H           24.603328        7.984526        7.984526
  H            1.262512       17.881314       17.881314
  H            1.262512       17.881314        7.984526
  H           24.603328        7.984526       17.881314
  H           24.603328       17.881314       17.881314
  H            1.262512        7.984526        7.984526
  H            1.262512        7.984526       17.881314
  H           24.603328       17.881314        7.984526
  O            2.502797       10.968679       13.673172
  H            3.433609       11.234755       13.631526
  H            2.530665       10.078404       14.054711
  O           23.365983        9.414451        3.242664
  H           22.654923       10.069941        3.182110
  H           23.031161        8.763884        3.877957
  O            3.454739       14.135029       14.721229
  H            2.908618       13.538085       14.187984
  H            2.922138       14.941672       14.789068
  O           10.946118       12.892419        3.360779
  H           10.502585       13.438351        2.694312
  H           10.321355       12.170250        3.525347
  O           11.737824       14.380070        6.405368
  H           11.499339       13.452980        6.255141
  H           11.793427       14.454140        7.369920
  O           22.625936       16.708757       21.783627
  H           23.024811       16.048487       22.370042
  H           22.307437       16.190189       21.029581
  O           16.876403       13.162928       12.420070
  H           16.374602       13.951560       12.164736
  H           16.352226       12.773574       13.136018
  O            8.156910       16.894287       10.286093
  H            7.964283       16.355569       11.068153
  H            7.582600       16.523635        9.599272
  O           14.108914       10.885933       10.513676
  H           13.356951       11.359639       10.899805
  H           14.675101       10.685947       11.274186
  O           13.882071        3.212636       11.798211
  H           12.924685        3.239530       11.651140
  H           13.997146        2.518565       12.464516
  O           13.103771        6.335152       11.707092
  H           12.690912        7.209740       11.766954
  H           12.539440        5.771719       12.257558
  O           10.004403       16.023423        2.754440
  H           10.107980       16.984532        2.821381
  H            9.045157       15.888944        2.780926
  O           12.463728       11.504951       14.658494
  H           11.905711       10.775537       14.349443
  H           12.989026       11.743873       13.880087
  O           22.542574        2.862868       15.092785
  H           22.972033        3.692372       14.835046
  H           21.971732        2.650765       14.339067
  O           16.064361       10.127850       23.365638
  H           16.153729        9.242884       22.981204
  H           15.409319       10.563709       22.800054
  O           17.891671        9.152685       15.320157
  H           18.524661        9.071429       16.049309
  H           17.597215        8.242942       15.163310
  O            2.540150       19.305997        3.242680
  H            2.854386       20.064272        2.727689
  H            2.493027       18.586637        2.595194
  O           12.568011       11.676815       20.738371
  H           12.233706       12.580567       20.840411
  H           12.167118       11.194160       21.476793
  O           10.377425       15.122159       17.097242
  H           11.018608       15.769138       17.427763
  H           10.843105       14.681111       16.370910
  O           18.634558       15.141394       16.125588
  H           19.005465       15.959386       16.489261
  H           17.687217       15.208091       16.318031
  O           23.349680        2.511709       20.257885
  H           23.032006        3.083458       20.972816
  H           22.880952        2.834953       19.473827
  O            8.805315        8.770486       13.593489
  H            9.005368        7.832248       13.457006
  H            7.899939        8.867414       13.262070
  O           13.161364       22.677261        3.257396
  H           12.838308       23.311302        2.599697
  H           12.814136       23.013680        4.097155
  O           13.446317       15.675929       14.464234
  H           12.719696       16.038307       14.993049
  H           14.240576       15.904363       14.970110
