      22
 Conformation       1
O    -2.331588    1.903244    0.052047
O    -3.452890   -0.471245    0.373210
N     4.337092    0.165514    0.293622
C     2.106614   -0.109937   -0.679663
C     0.620796   -0.235612   -0.422924
C     2.917956    0.085571    0.603573
C    -0.182374    0.901952   -0.316929
C     0.021511   -1.467741   -0.255876
C    -1.532270    0.818389   -0.052010
C    -1.340751   -1.562645    0.012706
C    -2.124930   -0.435727    0.117344
H     2.293557    0.727696   -1.348260
H     2.476982   -0.995789   -1.183053
H     2.540526    0.957777    1.140884
H     2.764032   -0.770120    1.252104
H     0.258030    1.877392   -0.450491
H     0.604835   -2.367868   -0.336188
H    -1.794434   -2.531984    0.137499
H     4.883213    0.191709    1.132903
H     4.542730    1.005778   -0.212844
H    -1.829300    2.693233   -0.088525
H    -3.743306   -1.367920    0.461234
      22
 Conformation       2
O    -2.331588    1.903244    0.052047
O    -3.452890   -0.471245    0.373210
N     4.337092    0.165514    0.293622
C     2.106614   -0.109937   -0.679663
C     0.620796   -0.235612   -0.422924
C     2.917956    0.085571    0.603573
C    -0.182374    0.901952   -0.316929
C     0.021511   -1.467741   -0.255876
C    -1.532270    0.818389   -0.052010
C    -1.340751   -1.562645    0.012706
C    -2.124930   -0.435727    0.117344
H     2.293557    0.727696   -1.348260
H     2.476982   -0.995789   -1.183053
H     2.540526    0.957777    1.140884
H     2.764032   -0.770120    1.252104
H     0.258030    1.877392   -0.450491
H     0.604835   -2.367868   -0.336188
H    -1.794434   -2.531984    0.137499
H     4.628787   -0.628084   -0.243448
H     4.884188    0.164538    1.133575
H    -1.829300    2.693233   -0.088525
H    -3.743306   -1.367920    0.461234
      22
 Conformation       3
O    -2.331588    1.903244    0.052047
O    -3.452890   -0.471245    0.373210
N     4.337092    0.165514    0.293622
C     2.106614   -0.109937   -0.679663
C     0.620796   -0.235612   -0.422924
C     2.917956    0.085571    0.603573
C    -0.182374    0.901952   -0.316929
C     0.021511   -1.467741   -0.255876
C    -1.532270    0.818389   -0.052010
C    -1.340751   -1.562645    0.012706
C    -2.124930   -0.435727    0.117344
H     2.293557    0.727696   -1.348260
H     2.476982   -0.995789   -1.183053
H     2.540526    0.957777    1.140884
H     2.764032   -0.770120    1.252104
H     0.258030    1.877392   -0.450491
H     0.604835   -2.367868   -0.336188
H    -1.794434   -2.531984    0.137499
H     4.539238    0.991501   -0.235727
H     4.622316   -0.615303   -0.266565
H    -1.829300    2.693233   -0.088525
H    -3.743306   -1.367920    0.461234
      22
 Conformation       4
O    -2.331588    1.903244    0.052047
O    -3.452890   -0.471245    0.373210
N     2.515624    1.314438    1.270222
C     2.106614   -0.109937   -0.679663
C     0.620796   -0.235612   -0.422924
C     2.917956    0.085571    0.603573
C    -0.182374    0.901952   -0.316929
C     0.021511   -1.467741   -0.255876
C    -1.532270    0.818389   -0.052010
C    -1.340751   -1.562645    0.012706
C    -2.124930   -0.435727    0.117344
H     2.293557    0.727696   -1.348260
H     2.476982   -0.995789   -1.183053
H     2.820519   -0.801870    1.231948
H     3.968365    0.171569    0.347177
H     0.258030    1.877392   -0.450491
H     0.604835   -2.367868   -0.336188
H    -1.794434   -2.531984    0.137499
H     3.108545    1.503463    2.055106
H     1.581184    1.236177    1.624529
H    -1.829300    2.693233   -0.088525
H    -3.743306   -1.367920    0.461234
      22
 Conformation       5
O    -2.331588    1.903244    0.052047
O    -3.452890   -0.471245    0.373210
N     2.515624    1.314438    1.270222
C     2.106614   -0.109937   -0.679663
C     0.620796   -0.235612   -0.422924
C     2.917956    0.085571    0.603573
C    -0.182374    0.901952   -0.316929
C     0.021511   -1.467741   -0.255876
C    -1.532270    0.818389   -0.052010
C    -1.340751   -1.562645    0.012706
C    -2.124930   -0.435727    0.117344
H     2.293557    0.727696   -1.348260
H     2.476982   -0.995789   -1.183053
H     2.820519   -0.801870    1.231948
H     3.968365    0.171569    0.347177
H     0.258030    1.877392   -0.450491
H     0.604835   -2.367868   -0.336188
H    -1.794434   -2.531984    0.137499
H     2.570903    2.093477    0.643030
H     3.125958    1.516990    2.039185
H    -1.829300    2.693233   -0.088525
H    -3.743306   -1.367920    0.461234
      22
 Conformation       6
O    -2.331588    1.903244    0.052047
O    -3.452890   -0.471245    0.373210
N     2.515624    1.314438    1.270222
C     2.106614   -0.109937   -0.679663
C     0.620796   -0.235612   -0.422924
C     2.917956    0.085571    0.603573
C    -0.182374    0.901952   -0.316929
C     0.021511   -1.467741   -0.255876
C    -1.532270    0.818389   -0.052010
C    -1.340751   -1.562645    0.012706
C    -2.124930   -0.435727    0.117344
H     2.293557    0.727696   -1.348260
H     2.476982   -0.995789   -1.183053
H     2.820519   -0.801870    1.231948
H     3.968365    0.171569    0.347177
H     0.258030    1.877392   -0.450491
H     0.604835   -2.367868   -0.336188
H    -1.794434   -2.531984    0.137499
H     1.572591    1.246905    1.601061
H     2.545465    2.088943    0.634542
H    -1.829300    2.693233   -0.088525
H    -3.743306   -1.367920    0.461234
      22
 Conformation       7
O    -2.331588    1.903244    0.052047
O    -3.452890   -0.471245    0.373210
N     2.700268   -1.030676    1.510771
C     2.106614   -0.109937   -0.679663
C     0.620796   -0.235612   -0.422924
C     2.917956    0.085571    0.603573
C    -0.182374    0.901952   -0.316929
C     0.021511   -1.467741   -0.255876
C    -1.532270    0.818389   -0.052010
C    -1.340751   -1.562645    0.012706
C    -2.124930   -0.435727    0.117344
H     2.293557    0.727696   -1.348260
H     2.476982   -0.995789   -1.183053
H     3.968088    0.239427    0.347735
H     2.582445    0.990442    1.098683
H     0.258030    1.877392   -0.450491
H     0.604835   -2.367868   -0.336188
H    -1.794434   -2.531984    0.137499
H     3.145558   -0.864121    2.392420
H     3.097920   -1.872476    1.139175
H    -1.829300    2.693233   -0.088525
H    -3.743306   -1.367920    0.461234
      22
 Conformation       8
O    -2.331588    1.903244    0.052047
O    -3.452890   -0.471245    0.373210
N     2.700268   -1.030676    1.510771
C     2.106614   -0.109937   -0.679663
C     0.620796   -0.235612   -0.422924
C     2.917956    0.085571    0.603573
C    -0.182374    0.901952   -0.316929
C     0.021511   -1.467741   -0.255876
C    -1.532270    0.818389   -0.052010
C    -1.340751   -1.562645    0.012706
C    -2.124930   -0.435727    0.117344
H     2.293557    0.727696   -1.348260
H     2.476982   -0.995789   -1.183053
H     3.968088    0.239427    0.347735
H     2.582445    0.990442    1.098683
H     0.258030    1.877392   -0.450491
H     0.604835   -2.367868   -0.336188
H    -1.794434   -2.531984    0.137499
H     1.722061   -1.168225    1.676661
H     3.123370   -0.851392    2.401658
H    -1.829300    2.693233   -0.088525
H    -3.743306   -1.367920    0.461234
      22
 Conformation       9
O    -2.331588    1.903244    0.052047
O    -3.452890   -0.471245    0.373210
N     2.700268   -1.030676    1.510771
C     2.106614   -0.109937   -0.679663
C     0.620796   -0.235612   -0.422924
C     2.917956    0.085571    0.603573
C    -0.182374    0.901952   -0.316929
C     0.021511   -1.467741   -0.255876
C    -1.532270    0.818389   -0.052010
C    -1.340751   -1.562645    0.012706
C    -2.124930   -0.435727    0.117344
H     2.293557    0.727696   -1.348260
H     2.476982   -0.995789   -1.183053
H     3.968088    0.239427    0.347735
H     2.582445    0.990442    1.098683
H     0.258030    1.877392   -0.450491
H     0.604835   -2.367868   -0.336188
H    -1.794434   -2.531984    0.137499
H     3.073659   -1.877686    1.128042
H     1.720296   -1.184586    1.655007
H    -1.829300    2.693233   -0.088525
H    -3.743306   -1.367920    0.461234
