         664
  Built with Packmol                                             
  Zn           7.588184        7.588184        5.344736
  Zn          18.277656       18.277656       20.521104
  Zn          18.277656       18.277656        5.344736
  Zn           7.588184        7.588184       20.521104
  Zn          18.277656        7.588184       20.521104
  Zn           7.588184       18.277656        5.344736
  Zn           7.588184       18.277656       20.521104
  Zn          18.277656        7.588184        5.344736
  Zn           5.344736        7.588184        7.588184
  Zn          20.521104       18.277656       18.277656
  Zn           5.344736       18.277656       18.277656
  Zn          20.521104        7.588184        7.588184
  Zn          20.521104       18.277656        7.588184
  Zn           5.344736        7.588184       18.277656
  Zn          20.521104        7.588184       18.277656
  Zn           5.344736       18.277656        7.588184
  Zn           7.588184        5.344736        7.588184
  Zn          18.277656       20.521104       18.277656
  Zn          18.277656        5.344736       18.277656
  Zn           7.588184       20.521104        7.588184
  Zn           7.588184       20.521104       18.277656
  Zn          18.277656        5.344736        7.588184
  Zn          18.277656       20.521104        7.588184
  Zn           7.588184        5.344736       18.277656
  Zn           5.344736       20.521104       20.521104
  Zn          20.521104        5.344736        5.344736
  Zn           5.344736        5.344736        5.344736
  Zn          20.521104       20.521104       20.521104
  Zn          20.521104        5.344736       20.521104
  Zn           5.344736       20.521104        5.344736
  Zn          20.521104       20.521104        5.344736
  Zn           5.344736        5.344736       20.521104
  O            6.466460        6.466460        6.466460
  O           19.399380       19.399380       19.399380
  O           19.399380       19.399380        6.466460
  O            6.466460        6.466460       19.399380
  O           19.399380        6.466460       19.399380
  O            6.466460       19.399380        6.466460
  O            6.466460       19.399380       19.399380
  O           19.399380        6.466460        6.466460
  O            7.269387        9.475899        5.663533
  O           18.596453       16.389941       20.202307
  O           18.596453       16.389941        5.663533
  O            7.269387        9.475899       20.202307
  O           18.596453        9.475899       20.202307
  O            7.269387       16.389941        5.663533
  O            7.269387       16.389941       20.202307
  O           18.596453        9.475899        5.663533
  O            5.663533        7.269387        9.475899
  O           20.202307       18.596453       16.389941
  O            5.663533       18.596453       16.389941
  O           20.202307        7.269387        9.475899
  O           20.202307       18.596453        9.475899
  O            5.663533        7.269387       16.389941
  O           20.202307        7.269387       16.389941
  O            5.663533       18.596453        9.475899
  O            9.475899        5.663533        7.269387
  O           16.389941       20.202307       18.596453
  O           16.389941        5.663533       18.596453
  O            9.475899       20.202307        7.269387
  O            9.475899       20.202307       18.596453
  O           16.389941        5.663533        7.269387
  O           16.389941       20.202307        7.269387
  O            9.475899        5.663533       18.596453
  O            9.475899        7.269387       20.202307
  O           16.389941       18.596453        5.663533
  O           16.389941       18.596453       20.202307
  O            9.475899        7.269387        5.663533
  O            9.475899       18.596453        5.663533
  O           16.389941        7.269387       20.202307
  O           16.389941        7.269387        5.663533
  O            9.475899       18.596453       20.202307
  O            7.269387        5.663533       16.389941
  O           18.596453       20.202307        9.475899
  O           18.596453        5.663533        9.475899
  O            7.269387       20.202307       16.389941
  O           18.596453       20.202307       16.389941
  O            7.269387        5.663533        9.475899
  O            7.269387       20.202307        9.475899
  O           18.596453        5.663533       16.389941
  O            5.663533        9.475899       18.596453
  O           20.202307       16.389941        7.269387
  O            5.663533       16.389941        7.269387
  O           20.202307        9.475899       18.596453
  O           20.202307        9.475899        7.269387
  O            5.663533       16.389941       18.596453
  O           20.202307       16.389941       18.596453
  O            5.663533        9.475899        7.269387
  O            7.269387       22.408819       18.596453
  O           18.596453        3.457021        7.269387
  O           18.596453        3.457021       18.596453
  O            7.269387       22.408819        7.269387
  O           18.596453       22.408819        7.269387
  O            7.269387        3.457021       18.596453
  O            7.269387        3.457021        7.269387
  O           18.596453       22.408819       18.596453
  O            5.663533       20.202307       22.408819
  O           20.202307        5.663533        3.457021
  O            5.663533        5.663533        3.457021
  O           20.202307       20.202307       22.408819
  O           20.202307        5.663533       22.408819
  O            5.663533       20.202307        3.457021
  O           20.202307       20.202307        3.457021
  O            5.663533        5.663533       22.408819
  O            7.269387       18.596453        3.457021
  O           18.596453        7.269387       22.408819
  O           18.596453       18.596453       22.408819
  O            7.269387        7.269387        3.457021
  O           18.596453        7.269387        3.457021
  O            7.269387       18.596453       22.408819
  O            7.269387        7.269387       22.408819
  O           18.596453       18.596453        3.457021
  O            5.663533       22.408819        5.663533
  O           20.202307        3.457021       20.202307
  O            5.663533        3.457021       20.202307
  O           20.202307       22.408819        5.663533
  O           20.202307       22.408819       20.202307
  O            5.663533        3.457021        5.663533
  O           20.202307        3.457021        5.663533
  O            5.663533       22.408819       20.202307
  O           22.408819        5.663533       20.202307
  O            3.457021       20.202307        5.663533
  O            3.457021        5.663533        5.663533
  O           22.408819       20.202307       20.202307
  O           22.408819       20.202307        5.663533
  O            3.457021        5.663533       20.202307
  O            3.457021       20.202307       20.202307
  O           22.408819        5.663533        5.663533
  O           22.408819        7.269387        7.269387
  O            3.457021       18.596453       18.596453
  O            3.457021       18.596453        7.269387
  O           22.408819        7.269387       18.596453
  O           22.408819       18.596453       18.596453
  O            3.457021        7.269387        7.269387
  O            3.457021        7.269387       18.596453
  O           22.408819       18.596453        7.269387
  C            6.466460       10.051905        6.466460
  C           19.399380       15.813935       19.399380
  C           19.399380       15.813935        6.466460
  C            6.466460       10.051905       19.399380
  C           19.399380       10.051905       19.399380
  C            6.466460       15.813935        6.466460
  C            6.466460       15.813935       19.399380
  C           19.399380       10.051905        6.466460
  C            6.466460        6.466460       10.051905
  C           19.399380       19.399380       15.813935
  C            6.466460       19.399380       15.813935
  C           19.399380        6.466460       10.051905
  C           19.399380       19.399380       10.051905
  C            6.466460        6.466460       15.813935
  C           19.399380        6.466460       15.813935
  C            6.466460       19.399380       10.051905
  C           10.051905        6.466460        6.466460
  C           15.813935       19.399380       19.399380
  C           15.813935        6.466460       19.399380
  C           10.051905       19.399380        6.466460
  C           10.051905       19.399380       19.399380
  C           15.813935        6.466460        6.466460
  C           15.813935       19.399380        6.466460
  C           10.051905        6.466460       19.399380
  C            6.466460       22.984825       19.399380
  C           19.399380        2.881015        6.466460
  C           19.399380        2.881015       19.399380
  C            6.466460       22.984825        6.466460
  C           19.399380       22.984825        6.466460
  C            6.466460        2.881015       19.399380
  C            6.466460        2.881015        6.466460
  C           19.399380       22.984825       19.399380
  C            6.466460       19.399380       22.984825
  C           19.399380        6.466460        2.881015
  C            6.466460        6.466460        2.881015
  C           19.399380       19.399380       22.984825
  C           19.399380        6.466460       22.984825
  C            6.466460       19.399380        2.881015
  C           19.399380       19.399380        2.881015
  C            6.466460        6.466460       22.984825
  C           22.984825        6.466460       19.399380
  C            2.881015       19.399380        6.466460
  C            2.881015        6.466460        6.466460
  C           22.984825       19.399380       19.399380
  C           22.984825       19.399380        6.466460
  C            2.881015        6.466460       19.399380
  C            2.881015       19.399380       19.399380
  C           22.984825        6.466460        6.466460
  C            6.466460       11.541131        6.466460
  C           19.399380       14.324709       19.399380
  C           19.399380       14.324709        6.466460
  C            6.466460       11.541131       19.399380
  C           19.399380       11.541131       19.399380
  C            6.466460       14.324709        6.466460
  C            6.466460       14.324709       19.399380
  C           19.399380       11.541131        6.466460
  C            6.466460        6.466460       11.541131
  C           19.399380       19.399380       14.324709
  C            6.466460       19.399380       14.324709
  C           19.399380        6.466460       11.541131
  C           19.399380       19.399380       11.541131
  C            6.466460        6.466460       14.324709
  C           19.399380        6.466460       14.324709
  C            6.466460       19.399380       11.541131
  C           11.541131        6.466460        6.466460
  C           14.324709       19.399380       19.399380
  C           14.324709        6.466460       19.399380
  C           11.541131       19.399380        6.466460
  C           11.541131       19.399380       19.399380
  C           14.324709        6.466460        6.466460
  C           14.324709       19.399380        6.466460
  C           11.541131        6.466460       19.399380
  C            6.466460       24.474051       19.399380
  C           19.399380        1.391789        6.466460
  C           19.399380        1.391789       19.399380
  C            6.466460       24.474051        6.466460
  C           19.399380       24.474051        6.466460
  C            6.466460        1.391789       19.399380
  C            6.466460        1.391789        6.466460
  C           19.399380       24.474051       19.399380
  C            6.466460       19.399380       24.474051
  C           19.399380        6.466460        1.391789
  C            6.466460        6.466460        1.391789
  C           19.399380       19.399380       24.474051
  C           19.399380        6.466460       24.474051
  C            6.466460       19.399380        1.391789
  C           19.399380       19.399380        1.391789
  C            6.466460        6.466460       24.474051
  C           24.474051        6.466460       19.399380
  C            1.391789       19.399380        6.466460
  C            1.391789        6.466460        6.466460
  C           24.474051       19.399380       19.399380
  C           24.474051       19.399380        6.466460
  C            1.391789        6.466460       19.399380
  C            1.391789       19.399380       19.399380
  C           24.474051        6.466460        6.466460
  C            7.324352       12.239172        5.608568
  C           18.541488       13.626668       20.257272
  C           18.541488       13.626668        5.608568
  C            7.324352       12.239172       20.257272
  C           18.541488       12.239172       20.257272
  C            7.324352       13.626668        5.608568
  C            7.324352       13.626668       20.257272
  C           18.541488       12.239172        5.608568
  C            5.608568        7.324352       12.239172
  C           20.257272       18.541488       13.626668
  C            5.608568       18.541488       13.626668
  C           20.257272        7.324352       12.239172
  C           20.257272       18.541488       12.239172
  C            5.608568        7.324352       13.626668
  C           20.257272        7.324352       13.626668
  C            5.608568       18.541488       12.239172
  C           12.239172        5.608568        7.324352
  C           13.626668       20.257272       18.541488
  C           13.626668        5.608568       18.541488
  C           12.239172       20.257272        7.324352
  C           12.239172       20.257272       18.541488
  C           13.626668        5.608568        7.324352
  C           13.626668       20.257272        7.324352
  C           12.239172        5.608568       18.541488
  C           12.239172        7.324352       20.257272
  C           13.626668       18.541488        5.608568
  C           13.626668       18.541488       20.257272
  C           12.239172        7.324352        5.608568
  C           12.239172       18.541488        5.608568
  C           13.626668        7.324352       20.257272
  C           13.626668        7.324352        5.608568
  C           12.239172       18.541488       20.257272
  C            7.324352        5.608568       13.626668
  C           18.541488       20.257272       12.239172
  C           18.541488        5.608568       12.239172
  C            7.324352       20.257272       13.626668
  C           18.541488       20.257272       13.626668
  C            7.324352        5.608568       12.239172
  C            7.324352       20.257272       12.239172
  C           18.541488        5.608568       13.626668
  C            5.608568       12.239172       18.541488
  C           20.257272       13.626668        7.324352
  C            5.608568       13.626668        7.324352
  C           20.257272       12.239172       18.541488
  C           20.257272       12.239172        7.324352
  C            5.608568       13.626668       18.541488
  C           20.257272       13.626668       18.541488
  C            5.608568       12.239172        7.324352
  C            7.324352       25.172092       18.541488
  C           18.541488        0.693748        7.324352
  C           18.541488        0.693748       18.541488
  C            7.324352       25.172092        7.324352
  C           18.541488       25.172092        7.324352
  C            7.324352        0.693748       18.541488
  C            7.324352        0.693748        7.324352
  C           18.541488       25.172092       18.541488
  C            5.608568       20.257272       25.172092
  C           20.257272        5.608568        0.693748
  C            5.608568        5.608568        0.693748
  C           20.257272       20.257272       25.172092
  C           20.257272        5.608568       25.172092
  C            5.608568       20.257272        0.693748
  C           20.257272       20.257272        0.693748
  C            5.608568        5.608568       25.172092
  C            7.324352       18.541488        0.693748
  C           18.541488        7.324352       25.172092
  C           18.541488       18.541488       25.172092
  C            7.324352        7.324352        0.693748
  C           18.541488        7.324352        0.693748
  C            7.324352       18.541488       25.172092
  C            7.324352        7.324352       25.172092
  C           18.541488       18.541488        0.693748
  C            5.608568       25.172092        5.608568
  C           20.257272        0.693748       20.257272
  C            5.608568        0.693748       20.257272
  C           20.257272       25.172092        5.608568
  C           20.257272       25.172092       20.257272
  C            5.608568        0.693748        5.608568
  C           20.257272        0.693748        5.608568
  C            5.608568       25.172092       20.257272
  C           25.172092        5.608568       20.257272
  C            0.693748       20.257272        5.608568
  C            0.693748        5.608568        5.608568
  C           25.172092       20.257272       20.257272
  C           25.172092       20.257272        5.608568
  C            0.693748        5.608568       20.257272
  C            0.693748       20.257272       20.257272
  C           25.172092        5.608568        5.608568
  C           25.172092        7.324352        7.324352
  C            0.693748       18.541488       18.541488
  C            0.693748       18.541488        7.324352
  C           25.172092        7.324352       18.541488
  C           25.172092       18.541488       18.541488
  C            0.693748        7.324352        7.324352
  C            0.693748        7.324352       18.541488
  C           25.172092       18.541488        7.324352
  H            7.984526       11.670408        4.948394
  H           17.881314       14.195432       20.917446
  H           17.881314       14.195432        4.948394
  H            7.984526       11.670408       20.917446
  H           17.881314       11.670408       20.917446
  H            7.984526       14.195432        4.948394
  H            7.984526       14.195432       20.917446
  H           17.881314       11.670408        4.948394
  H            4.948394        7.984526       11.670408
  H           20.917446       17.881314       14.195432
  H            4.948394       17.881314       14.195432
  H           20.917446        7.984526       11.670408
  H           20.917446       17.881314       11.670408
  H            4.948394        7.984526       14.195432
  H           20.917446        7.984526       14.195432
  H            4.948394       17.881314       11.670408
  H           11.670408        4.948394        7.984526
  H           14.195432       20.917446       17.881314
  H           14.195432        4.948394       17.881314
  H           11.670408       20.917446        7.984526
  H           11.670408       20.917446       17.881314
  H           14.195432        4.948394        7.984526
  H           14.195432       20.917446        7.984526
  H           11.670408        4.948394       17.881314
  H           11.670408        7.984526       20.917446
  H           14.195432       17.881314        4.948394
  H           14.195432       17.881314       20.917446
  H           11.670408        7.984526        4.948394
  H           11.670408       17.881314        4.948394
  H           14.195432        7.984526       20.917446
  H           14.195432        7.984526        4.948394
  H           11.670408       17.881314       20.917446
  H            7.984526        4.948394       14.195432
  H           17.881314       20.917446       11.670408
  H           17.881314        4.948394       11.670408
  H            7.984526       20.917446       14.195432
  H           17.881314       20.917446       14.195432
  H            7.984526        4.948394       11.670408
  H            7.984526       20.917446       11.670408
  H           17.881314        4.948394       14.195432
  H            4.948394       11.670408       17.881314
  H           20.917446       14.195432        7.984526
  H            4.948394       14.195432        7.984526
  H           20.917446       11.670408       17.881314
  H           20.917446       11.670408        7.984526
  H            4.948394       14.195432       17.881314
  H           20.917446       14.195432       17.881314
  H            4.948394       11.670408        7.984526
  H            7.984526       24.603328       17.881314
  H           17.881314        1.262512        7.984526
  H           17.881314        1.262512       17.881314
  H            7.984526       24.603328        7.984526
  H           17.881314       24.603328        7.984526
  H            7.984526        1.262512       17.881314
  H            7.984526        1.262512        7.984526
  H           17.881314       24.603328       17.881314
  H            4.948394       20.917446       24.603328
  H           20.917446        4.948394        1.262512
  H            4.948394        4.948394        1.262512
  H           20.917446       20.917446       24.603328
  H           20.917446        4.948394       24.603328
  H            4.948394       20.917446        1.262512
  H           20.917446       20.917446        1.262512
  H            4.948394        4.948394       24.603328
  H            7.984526       17.881314        1.262512
  H           17.881314        7.984526       24.603328
  H           17.881314       17.881314       24.603328
  H            7.984526        7.984526        1.262512
  H           17.881314        7.984526        1.262512
  H            7.984526       17.881314       24.603328
  H            7.984526        7.984526       24.603328
  H           17.881314       17.881314        1.262512
  H            4.948394       24.603328        4.948394
  H           20.917446        1.262512       20.917446
  H            4.948394        1.262512       20.917446
  H           20.917446       24.603328        4.948394
  H           20.917446       24.603328       20.917446
  H            4.948394        1.262512        4.948394
  H           20.917446        1.262512        4.948394
  H            4.948394       24.603328       20.917446
  H           24.603328        4.948394       20.917446
  H            1.262512       20.917446        4.948394
  H            1.262512        4.948394        4.948394
  H           24.603328       20.917446       20.917446
  H           24.603328       20.917446        4.948394
  H            1.262512        4.948394       20.917446
  H            1.262512       20.917446       20.917446
  H           24.603328        4.948394        4.948394
  H           24.603328        7.984526        7.984526
  H            1.262512       17.881314       17.881314
  H            1.262512       17.881314        7.984526
  H           24.603328        7.984526       17.881314
  H           24.603328       17.881314       17.881314
  H            1.262512        7.984526        7.984526
  H            1.262512        7.984526       17.881314
  H           24.603328       17.881314        7.984526
  O            5.503457       10.731098       13.841261
  O            4.246318       11.822046       15.355527
  O            6.431046       11.326328       15.854378
  C            4.301825       11.114466       13.189135
  C            3.371735       11.374050       14.330616
  C            5.480420       11.295698       15.087297
  H            3.945032       10.320359       12.527985
  H            4.499883       12.014370       12.597465
  H            2.621037       12.133678       14.097152
  H            2.869071       10.464585       14.676212
  O            5.369409       14.471875       15.196094
  O            6.013987       15.745631       13.456660
  O            4.189347       14.371943       13.230178
  C            6.346145       15.380589       15.682288
  C            7.041037       15.821742       14.434113
  C            5.107189       14.821807       13.899677
  H            7.020847       14.889007       16.388086
  H            5.832259       16.204272       16.188841
  H            7.435194       16.838652       14.509104
  H            7.848935       15.142478       14.142336
  O           14.892139        7.566899        8.539912
  O           14.003178        9.497839        7.801817
  O           12.612351        7.758952        8.358138
  C           15.940051        8.524498        8.507604
  C           15.404554        9.573095        7.586127
  C           13.733419        8.231287        8.243487
  H           16.867839        8.076910        8.141680
  H           16.097666        8.900969        9.523751
  H           15.783304       10.571613        7.819790
  H           15.606326        9.348093        6.533562
  O           14.854064       12.546942       10.138873
  O           15.810240       12.956377        8.143465
  O           13.601390       12.338638        8.227126
  C           16.121488       13.133694       10.394839
  C           16.852104       12.922800        9.107535
  C           14.658662       12.590660        8.785427
  H           16.613268       12.648486       11.242042
  H           15.973196       14.194350       10.623194
  H           17.592148       13.703098        8.911171
  H           17.339205       11.943241        9.058235
  O           10.281575       11.284942       11.729308
  O           10.870009        9.675159       10.271257
  O            8.651677       10.205449       10.527024
  C           11.694376       11.336430       11.597003
  C           12.025257        9.991573       11.033702
  C            9.826959       10.372993       10.816300
  H           12.171519       11.516516       12.563921
  H           11.949338       12.151645       10.911769
  H           12.917981       10.007776       10.402933
  H           12.147060        9.230343       11.811472
  O           12.522522       13.732661        6.573053
  O           10.318067       14.162227        6.433703
  O           11.035456       11.984793        6.542139
  C           12.355547       15.129560        6.765284
  C           10.998553       15.384705        6.191787
  C           11.270539       13.183627        6.518189
  H           13.141093       15.691545        6.253311
  H           12.402772       15.340286        7.838826
  H           10.486966       16.219970        6.677276
  H           11.026734       15.558283        5.110903
  O           18.742063       14.875197       16.872323
  O           18.687614       16.821381       15.744063
  O           20.306278       15.274003       15.240899
  C           17.522098       15.519453       17.208152
  C           17.782433       16.942688       16.831247
  C           19.334348       15.624909       15.893017
  H           17.296481       15.400288       18.271131
  H           16.717837       15.069994       16.616308
  H           16.874422       17.470187       16.527354
  H           18.274926       17.504440       17.631945
  O           16.575051       13.802090       13.368418
  O           18.172313       15.131634       12.505499
  O           15.985379       15.826684       12.462512
  C           17.827726       13.248198       13.742807
  C           18.772668       13.871602       12.766137
  C           16.833363       14.995950       12.752071
  H           17.809663       12.157401       13.673081
  H           18.041201       13.539887       14.776477
  H           19.779169       13.994782       13.174636
  H           18.831020       13.313713       11.825613
  O           13.281018       16.386256       11.141414
  O           12.811068       18.411186       10.279803
  O           14.206397       16.996108        9.131659
  C           12.226947       16.936686       11.917378
  C           12.314945       18.397258       11.610106
  C           13.497836       17.242144       10.096255
  H           12.369257       16.720933       12.979558
  H           11.282484       16.494670       11.583102
  H           11.345708       18.899155       11.671481
  H           13.032019       18.917955       12.253466
  O           14.728535       12.477328        2.927073
  O           12.772670       11.670277        3.693119
  O           14.445005       10.207764        3.116947
  C           13.987762       13.580710        3.427036
  C           12.587452       13.057359        3.452833
  C           14.020745       11.347582        3.234672
  H           14.098950       14.453025        2.777629
  H           14.361738       13.825478        4.426716
  H           11.982351       13.513547        4.240763
  H           12.077649       13.178013        2.491180
  O           15.631722        4.535391       10.867848
  O           13.479952        4.435108       10.217160
  O           14.321189        6.413221       11.021531
  C           15.453819        3.294679       10.200655
  C           13.971589        3.103322       10.243161
  C           14.464442        5.235490       10.729181
  H           15.996102        2.494599       10.711368
  H           15.834197        3.392588        9.178474
  H           13.596703        2.531159        9.390413
  H           13.637286        2.627963       11.171336
  O           11.852517        7.228884       13.167498
  O           11.916880        5.504590       11.723117
  O           10.736566        7.393283       11.168751
  C           12.830628        6.317978       13.646777
  C           12.472721        5.046301       12.946657
  C           11.437653        6.766132       11.948622
  H           12.780914        6.227424       14.735058
  H           13.820342        6.689163       13.360741
  H           13.340705        4.406520       12.766730
  H           11.708023        4.474253       13.482595
  O            8.719578       15.382947        9.659334
  O           10.361220       16.902890        9.417775
  O           10.904321       14.681468        9.612573
  C            8.101664       16.616083        9.322115
  C            9.158736       17.619956        9.654181
  C           10.071216       15.574192        9.567633
  H            7.184622       16.764572        9.898319
  H            7.858329       16.601874        8.254541
  H            9.104693       18.511738        9.024186
  H            9.134939       17.920264       10.707025
  O           11.288777        9.957220       18.277994
  O           12.643911        9.955941       16.481559
  O           12.232141        7.984233       17.581757
  C           11.170866       11.232140       17.664123
  C           12.405464       11.312942       16.824678
  C           12.070002        9.189044       17.458542
  H           11.120234       12.024791       18.415233
  H           10.254967       11.245067       17.064047
  H           12.265968       11.924234       15.929161
  H           13.269085       11.686181       17.385111
  O            3.595684       10.782171        4.327358
  O            2.518795       11.601338        2.529347
  O            2.548923        9.334393        2.886667
  C            3.529145       12.191649        4.485805
  C            3.262018       12.670802        3.094948
  C            2.859646       10.468902        3.217394
  H            4.464438       12.584046        4.893578
  H            2.709823       12.425301        5.173734
  H            2.687693       13.600736        3.073444
  H            4.180699       12.800835        2.513271
  O            8.058118       12.227498       11.734934
  O            7.790507       14.459191       11.627698
  O            9.345539       13.580388       13.068949
  C            7.229716       12.496087       10.613430
  C            6.723587       13.874318       10.895821
  C            8.477224       13.435585       12.221541
  H            6.425134       11.760078       10.536196
  H            7.845469       12.453340        9.708915
  H            6.517164       14.441573        9.984394
  H            5.829720       13.870596       11.528450
  O            3.965494       15.629793        3.422525
  O            5.246794       17.322616        2.676747
  O            6.023839       15.168867        2.518023
  C            3.155939       16.796306        3.417234
  C            4.163448       17.900658        3.389675
  C            5.157987       15.967450        2.842994
  H            2.516195       16.832508        4.302923
  H            2.528622       16.779375        2.519841
  H            3.793432       18.795026        2.881459
  H            4.513025       18.173509        4.390964
  O           11.793530       13.253603       22.539955
  O           10.118112       11.830213       22.059848
  O            9.675313       13.713921       23.294027
  C           12.290148       12.330901       21.581753
  C           11.330073       11.189824       21.689592
  C           10.457532       12.997882       22.687017
  H           13.317651       12.039649       21.815068
  H           12.265423       12.807141       20.595998
  H           11.214003       10.647307       20.747630
  H           11.605538       10.484256       22.480494
  O           15.743676       11.404439       18.820198
  O           17.394157       10.494688       17.590632
  O           17.374566       12.762070       17.945901
  C           15.646833        9.995466       18.967091
  C           16.416893        9.484476       17.791793
  C           16.882305       11.654973       18.104191
  H           14.602605        9.672134       18.958650
  H           16.103749        9.713779       19.921559
  H           16.888141        8.517354       17.985931
  H           15.802308        9.411250       16.888379
  O           14.512847       17.020058       16.775193
  O           14.121383       14.844309       16.355152
  O           14.599375       15.508007       18.499598
  C           14.013453       16.933311       15.448829
  C           14.242088       15.497473       15.100224
  C           14.427229       15.767064       17.317949
  H           14.547304       17.617719       14.784287
  H           12.950771       17.197336       15.460100
  H           13.506223       15.115250       14.387836
  H           15.249273       15.316605       14.710227
  O           21.366068        2.498929       16.588299
  O           21.036633        4.724901       16.597650
  O           19.251159        3.324665       16.252618
  C           22.565000        3.097292       17.058069
  C           22.440054        4.509808       16.584130
  C           20.442436        3.500137       16.460247
  H           23.442169        2.591389       16.646166
  H           22.585450        3.022421       18.150362
  H           22.951063        5.220121       17.239427
  H           22.801441        4.640853       15.558723
  O            9.696460        9.354528       14.496124
  O           11.193149        7.923583       15.376968
  O           11.937667        9.735898       14.181629
  C            8.984833        8.489511       15.368759
  C            9.912459        7.325905       15.513537
  C           11.025781        9.065765       14.642524
  H            8.020078        8.207474       14.938958
  H            8.818295        9.012612       16.316260
  H            9.814426        6.827729       16.481679
  H            9.786641        6.588205       14.714036
  O           12.055730       23.364014        5.593918
  O           14.050080       22.420579        6.036710
  O           12.842459       23.355556        7.749921
  C           12.456590       22.664906        4.424850
  C           13.929129       22.499643        4.624210
  C           12.971132       23.072823        6.568166
  H           12.215470       23.236888        3.525002
  H           11.927918       21.706389        4.395202
  H           14.319518       21.596913        4.146964
  H           14.498839       23.367262        4.275067
  O           10.535856       14.382968       17.931267
  O           11.118092       16.538569       17.652067
  O           11.635290       15.479369       19.621388
  C           10.319301       14.701139       16.564507
  C           10.257670       16.194958       16.576128
  C           11.141308       15.468089       18.503848
  H            9.395923       14.244839       16.198187
  H           11.164976       14.321509       15.981547
  H           10.606561       16.637646       15.639436
  H            9.253915       16.570812       16.800723
