         726
  Built with Packmol                                             
  O           21.808251        2.536749        0.000000
  O           21.808251        3.549501        6.086250
  O           20.795499        3.549501       12.172500
  O           20.795499        2.536749       18.258750
  O            0.000000       21.808251        2.536749
  O            6.086250       21.808251        3.549501
  O           12.172500       20.795499        3.549501
  O           18.258750       20.795499        2.536749
  O            2.536749        6.086250        8.622999
  O            2.536749       12.172500        9.635751
  O            3.549501       18.258750        9.635751
  O            3.549501        0.000000        8.622999
  O            2.536749       21.808251        0.000000
  O            2.536749       20.795499       18.258750
  O            3.549501       20.795499       12.172500
  O            3.549501       21.808251        6.086250
  O            0.000000        2.536749       21.808251
  O           18.258750        2.536749       20.795499
  O           12.172500        3.549501       20.795499
  O            6.086250        3.549501       21.808251
  O           21.808251       18.258750       15.722001
  O           21.808251       12.172500       14.709249
  O           20.795499        6.086250       14.709249
  O           20.795499        0.000000       15.722001
  O           21.808251       14.709249       12.172500
  O           21.808251       15.722001       18.258750
  O           20.795499       15.722001        0.000000
  O           20.795499       14.709249        6.086250
  O            0.000000        9.635751       14.709249
  O            6.086250        9.635751       15.722001
  O           12.172500        8.622999       15.722001
  O           18.258750        8.622999       14.709249
  O            2.536749       18.258750       20.795499
  O            2.536749        0.000000       21.808251
  O            3.549501        6.086250       21.808251
  O            3.549501       12.172500       20.795499
  O            2.536749        9.635751       12.172500
  O            2.536749        8.622999        6.086250
  O            3.549501        8.622999        0.000000
  O            3.549501        9.635751       18.258750
  O            0.000000       14.709249        9.635751
  O           18.258750       14.709249        8.622999
  O           12.172500       15.722001        8.622999
  O            6.086250       15.722001        9.635751
  O           21.808251        6.086250        3.549501
  O           21.808251        0.000000        2.536749
  O           20.795499       18.258750        2.536749
  O           20.795499       12.172500        3.549501
  O            9.635751        2.536749       12.172500
  O            9.635751        3.549501       18.258750
  O            8.622999        3.549501        0.000000
  O            8.622999        2.536749        6.086250
  O           12.172500       21.808251       14.709249
  O           18.258750       21.808251       15.722001
  O            0.000000       20.795499       15.722001
  O            6.086250       20.795499       14.709249
  O           14.709249        6.086250       20.795499
  O           14.709249       12.172500       21.808251
  O           15.722001       18.258750       21.808251
  O           15.722001        0.000000       20.795499
  O           14.709249       21.808251       12.172500
  O           14.709249       20.795499        6.086250
  O           15.722001       20.795499        0.000000
  O           15.722001       21.808251       18.258750
  O           12.172500        2.536749        9.635751
  O            6.086250        2.536749        8.622999
  O            0.000000        3.549501        8.622999
  O           18.258750        3.549501        9.635751
  O            9.635751       18.258750        3.549501
  O            9.635751       12.172500        2.536749
  O            8.622999        6.086250        2.536749
  O            8.622999        0.000000        3.549501
  O            9.635751       14.709249        0.000000
  O            9.635751       15.722001        6.086250
  O            8.622999       15.722001       12.172500
  O            8.622999       14.709249       18.258750
  O           12.172500        9.635751        2.536749
  O           18.258750        9.635751        3.549501
  O            0.000000        8.622999        3.549501
  O            6.086250        8.622999        2.536749
  O           14.709249       18.258750        8.622999
  O           14.709249        0.000000        9.635751
  O           15.722001        6.086250        9.635751
  O           15.722001       12.172500        8.622999
  O           14.709249        9.635751        0.000000
  O           14.709249        8.622999       18.258750
  O           15.722001        8.622999       12.172500
  O           15.722001        9.635751        6.086250
  O           12.172500       14.709249       21.808251
  O            6.086250       14.709249       20.795499
  O            0.000000       15.722001       20.795499
  O           18.258750       15.722001       21.808251
  O            9.635751        6.086250       15.722001
  O            9.635751        0.000000       14.709249
  O            8.622999       18.258750       14.709249
  O            8.622999       12.172500       15.722001
  O           23.539180        1.855089        1.855089
  O           22.489911        5.280430        7.941339
  O           19.064570        4.231161       14.027589
  O           20.113839        0.805820       20.113839
  O           23.539180        4.231161        4.231161
  O           22.489911        0.805820       22.489911
  O           19.064570        1.855089       16.403661
  O           20.113839        5.280430       10.317411
  O            1.855089       23.539180        1.855089
  O            7.941339       22.489911        5.280430
  O           14.027589       19.064570        4.231161
  O           20.113839       20.113839        0.805820
  O            4.231161       23.539180        4.231161
  O           22.489911       22.489911        0.805820
  O           16.403661       19.064570        1.855089
  O           10.317411       20.113839        5.280430
  O            0.805820        7.941339        7.941339
  O            1.855089       14.027589       11.366680
  O            5.280430       20.113839       10.317411
  O            4.231161        1.855089        6.892069
  O            0.805820       10.317411       10.317411
  O            1.855089        4.231161        6.892069
  O            5.280430       22.489911        7.941339
  O            4.231161       16.403661       11.366680
  O            0.805820       22.489911       22.489911
  O            1.855089       19.064570       16.403661
  O            0.805820       20.113839       20.113839
  O            4.231161       19.064570       14.027589
  O           16.403661        1.855089       19.064570
  O           10.317411        5.280430       20.113839
  O            4.231161        4.231161       23.539180
  O            1.855089        1.855089       23.539180
  O            7.941339        5.280430       22.489911
  O           14.027589        4.231161       19.064570
  O           23.539180       16.403661       16.403661
  O           22.489911       10.317411       12.978319
  O           20.113839       22.489911       17.452930
  O           23.539180       14.027589       14.027589
  O           22.489911       20.113839       17.452930
  O           20.113839        7.941339       12.978319
  O           22.489911       17.452930       20.113839
  O           19.064570       16.403661        1.855089
  O           20.113839       12.978319        7.941339
  O           22.489911       12.978319       10.317411
  O           19.064570       14.027589        4.231161
  O           20.113839       17.452930       22.489911
  O            1.855089       11.366680       14.027589
  O            7.941339       10.317411       17.452930
  O           14.027589        6.892069       16.403661
  O            4.231161       11.366680       16.403661
  O           16.403661        6.892069       14.027589
  O           10.317411        7.941339       17.452930
  O            5.280430        7.941339       22.489911
  O            4.231161       14.027589       19.064570
  O            1.855089       16.403661       19.064570
  O            5.280430       10.317411       20.113839
  O            1.855089        6.892069        4.231161
  O            4.231161        6.892069        1.855089
  O           16.403661       14.027589        6.892069
  O           10.317411       17.452930        7.941339
  O            7.941339       17.452930       10.317411
  O           14.027589       16.403661        6.892069
  O           20.113839       10.317411        5.280430
  O           22.489911        7.941339        5.280430
  O           11.366680        1.855089       14.027589
  O            6.892069        4.231161        1.855089
  O            7.941339        0.805820        7.941339
  O           11.366680        4.231161       16.403661
  O           10.317411        0.805820       10.317411
  O            6.892069        1.855089        4.231161
  O           14.027589       23.539180       14.027589
  O            7.941339       20.113839       12.978319
  O           16.403661       23.539180       16.403661
  O           10.317411       22.489911       12.978319
  O           12.978319        7.941339       20.113839
  O           14.027589       14.027589       23.539180
  O           17.452930       20.113839       22.489911
  O           12.978319       10.317411       22.489911
  O           17.452930       22.489911       20.113839
  O           16.403661       16.403661       23.539180
  O           12.978319       22.489911       10.317411
  O           12.978319       20.113839        7.941339
  O           16.403661        4.231161       11.366680
  O           14.027589        1.855089       11.366680
  O           11.366680       16.403661        4.231161
  O           10.317411       10.317411        0.805820
  O           11.366680       14.027589        1.855089
  O            7.941339        7.941339        0.805820
  O            6.892069       16.403661       14.027589
  O            7.941339       12.978319       20.113839
  O           10.317411       12.978319       22.489911
  O            6.892069       14.027589       16.403661
  O           14.027589       11.366680        1.855089
  O           16.403661       11.366680        4.231161
  O           17.452930        7.941339       10.317411
  O           17.452930       10.317411        7.941339
  O           24.262227        3.478900       24.262227
  O           20.866099        6.003477        6.003477
  O           18.341523        2.607349       12.089727
  O           21.737651        0.082773       18.175977
  O           24.262227        2.607349        6.169023
  O           20.866099        0.082773        0.082773
  O           18.341523        3.478900       18.341523
  O           21.737651        6.003477       12.255273
  O           24.262227       24.262227        3.478900
  O            6.003477       20.866099        6.003477
  O           12.089727       18.341523        2.607349
  O           18.175977       21.737651        0.082773
  O            6.169023       24.262227        2.607349
  O            0.082773       20.866099        0.082773
  O           18.341523       18.341523        3.478900
  O           12.255273       21.737651        6.003477
  O            0.082773        6.003477        9.565150
  O            3.478900       12.089727       12.089727
  O            6.003477       18.175977        8.693599
  O            2.607349       24.262227        6.169023
  O            0.082773       12.255273        8.693599
  O            3.478900        6.169023        6.169023
  O            6.003477        0.082773        9.565150
  O            2.607349       18.341523       12.089727
  O            3.478900       18.341523       18.341523
  O            6.003477       21.737651       12.255273
  O            0.082773       21.737651       18.175977
  O            3.478900       24.262227       24.262227
  O            0.082773        0.082773       20.866099
  O           12.255273        6.003477       21.737651
  O            6.169023        2.607349       24.262227
  O           18.175977        0.082773       21.737651
  O            6.003477        6.003477       20.866099
  O           12.089727        2.607349       18.341523
  O           24.262227       18.341523       14.779849
  O           20.866099       12.255273       12.255273
  O           18.341523        6.169023       15.651400
  O           24.262227       12.089727       15.651400
  O           20.866099       18.175977       18.175977
  O           18.341523       24.262227       14.779849
  O           24.262227       15.651400       12.089727
  O           18.341523       14.779849       24.262227
  O           21.737651       12.255273        6.003477
  O           24.262227       14.779849       18.341523
  O           18.341523       15.651400        6.169023
  O           21.737651       18.175977        0.082773
  O            6.003477        8.693599       18.175977
  O           12.089727        6.169023       14.779849
  O           18.175977        9.565150       12.255273
  O            6.169023       12.089727       14.779849
  O            0.082773        8.693599       12.255273
  O           12.255273        9.565150       18.175977
  O            0.082773       18.175977       21.737651
  O            2.607349       12.089727       18.341523
  O            6.003477       12.255273       21.737651
  O            2.607349        6.169023       24.262227
  O            6.003477        9.565150        0.082773
  O            0.082773        9.565150        6.003477
  O           12.255273       18.175977        9.565150
  O            6.169023       14.779849       12.089727
  O           18.175977       12.255273        9.565150
  O           12.089727       14.779849        6.169023
  O           24.262227        6.169023        2.607349
  O           18.341523       12.089727        2.607349
  O           12.089727        3.478900       12.089727
  O            8.693599        6.003477       18.175977
  O            9.565150        0.082773        6.003477
  O            8.693599        0.082773       12.255273
  O            6.169023        3.478900        6.169023
  O            9.565150        6.003477        0.082773
  O           12.089727       24.262227       15.651400
  O           18.175977       20.866099       18.175977
  O           12.255273       20.866099       12.255273
  O            6.169023       18.341523       15.651400
  O           15.651400       12.089727       24.262227
  O           18.175977       18.175977       20.866099
  O           14.779849       24.262227       18.341523
  O           12.255273       12.255273       20.866099
  O           15.651400        6.169023       18.341523
  O           14.779849       18.341523       24.262227
  O           15.651400       18.341523        6.169023
  O           15.651400       24.262227       12.089727
  O           12.255273        0.082773        8.693599
  O           18.175977        6.003477        8.693599
  O            8.693599       12.255273        0.082773
  O            6.169023        6.169023        3.478900
  O           12.089727       12.089727        3.478900
  O            8.693599       18.175977        6.003477
  O           12.089727       15.651400       24.262227
  O            9.565150       12.255273       18.175977
  O            6.169023       15.651400       18.341523
  O            9.565150       18.175977       12.255273
  O           18.175977        8.693599        6.003477
  O           12.255273        8.693599        0.082773
  O           14.779849       12.089727        6.169023
  O           14.779849        6.169023       12.089727
  O           22.599463        4.309065        1.777185
  O           20.035935        4.340714        7.863435
  O           20.004286        1.777185       13.949685
  O           22.567815        1.745536       20.035935
  O           22.599463        1.777185        4.309065
  O           20.035935        1.745536       22.567815
  O           20.004286        4.309065       16.481565
  O           22.567815        4.340714       10.395315
  O            1.777185       22.599463        4.309065
  O            7.863435       20.035935        4.340714
  O           13.949685       20.004286        1.777185
  O           20.035935       22.567815        1.745536
  O            4.309065       22.599463        1.777185
  O           22.567815       20.035935        1.745536
  O           16.481565       20.004286        4.309065
  O           10.395315       22.567815        4.340714
  O            1.745536        7.863435       10.395315
  O            4.309065       13.949685       10.426964
  O            4.340714       20.035935        7.863435
  O            1.777185        1.777185        7.831786
  O            1.745536       10.395315        7.863435
  O            4.309065        4.309065        7.831786
  O            4.340714       22.567815       10.395315
  O            1.777185       16.481565       10.426964
  O            1.745536       20.035935       22.567815
  O            4.309065       20.004286       16.481565
  O            1.745536       22.567815       20.035935
  O            1.777185       20.004286       13.949685
  O           16.481565        4.309065       20.004286
  O           10.395315        4.340714       22.567815
  O            4.309065        1.777185       22.599463
  O            1.777185        4.309065       22.599463
  O            7.863435        4.340714       20.035935
  O           13.949685        1.777185       20.004286
  O           22.599463       16.481565       13.949685
  O           20.035935       10.395315       13.918036
  O           22.567815       22.567815       16.513214
  O           22.599463       13.949685       16.481565
  O           20.035935       20.035935       16.513214
  O           22.567815        7.863435       13.918036
  O           20.035935       16.513214       20.035935
  O           20.004286       13.949685        1.777185
  O           22.567815       13.918036        7.863435
  O           20.035935       13.918036       10.395315
  O           20.004286       16.481565        4.309065
  O           22.567815       16.513214       22.567815
  O            1.777185       10.426964       16.481565
  O            7.863435        7.863435       16.513214
  O           13.949685        7.831786       13.949685
  O            4.309065       10.426964       13.949685
  O           16.481565        7.831786       16.481565
  O           10.395315       10.395315       16.513214
  O            4.340714        7.863435       20.035935
  O            1.777185       13.949685       20.004286
  O            4.309065       16.481565       20.004286
  O            4.340714       10.395315       22.567815
  O            4.309065        7.831786        4.309065
  O            1.777185        7.831786        1.777185
  O           16.481565       16.481565        7.831786
  O           10.395315       16.513214       10.395315
  O            7.863435       16.513214        7.863435
  O           13.949685       13.949685        7.831786
  O           22.567815       10.395315        4.340714
  O           20.035935        7.863435        4.340714
  O           10.426964        4.309065       13.949685
  O            7.831786        1.777185        1.777185
  O           10.395315        1.745536        7.863435
  O           10.426964        1.777185       16.481565
  O            7.863435        1.745536       10.395315
  O            7.831786        4.309065        4.309065
  O           13.949685       22.599463       16.481565
  O            7.863435       22.567815       13.918036
  O           16.481565       22.599463       13.949685
  O           10.395315       20.035935       13.918036
  O           13.918036        7.863435       22.567815
  O           16.481565       13.949685       22.599463
  O           16.513214       20.035935       20.035935
  O           13.918036       10.395315       20.035935
  O           16.513214       22.567815       22.567815
  O           13.949685       16.481565       22.599463
  O           13.918036       20.035935       10.395315
  O           13.918036       22.567815        7.863435
  O           16.481565        1.777185       10.426964
  O           13.949685        4.309065       10.426964
  O           10.426964       16.481565        1.777185
  O            7.863435       10.395315        1.745536
  O           10.426964       13.949685        4.309065
  O           10.395315        7.863435        1.745536
  O            7.831786       13.949685       13.949685
  O           10.395315       13.918036       20.035935
  O            7.863435       13.918036       22.567815
  O            7.831786       16.481565       16.481565
  O           13.949685       10.426964        4.309065
  O           16.481565       10.426964        1.777185
  O           16.513214        7.863435        7.863435
  O           16.513214       10.395315       10.395315
  Si          23.052280        3.045559        0.886158
  Si          21.299440        4.793530        6.972408
  Si          19.551469        3.040691       13.058658
  Si          21.304309        1.292720       19.144908
  Si          23.052280        3.040691        5.200092
  Si          21.299440        1.292720       23.458842
  Si          19.551469        3.045559       17.372592
  Si          21.304309        4.793530       11.286342
  Si           0.886158       23.052280        3.045559
  Si           6.972408       21.299440        4.793530
  Si          13.058658       19.551469        3.040691
  Si          19.144908       21.304309        1.292720
  Si           5.200092       23.052280        3.040691
  Si          23.458842       21.299440        1.292720
  Si          17.372592       19.551469        3.045559
  Si          11.286342       21.304309        4.793530
  Si           1.292720        6.972408        9.131809
  Si           3.045559       13.058658       10.879780
  Si           4.793530       19.144908        9.126940
  Si           3.040691        0.886158        7.378970
  Si           1.292720       11.286342        9.126940
  Si           3.045559        5.200092        7.378970
  Si           4.793530       23.458842        9.131809
  Si           3.040691       17.372592       10.879780
  Si           1.292720       21.299440       23.458842
  Si           3.045559       19.551469       17.372592
  Si           4.793530       21.304309       11.286342
  Si           3.040691       23.052280        5.200092
  Si           1.292720       21.304309       19.144908
  Si           3.045559       23.052280        0.886158
  Si           4.793530       21.299440        6.972408
  Si           3.040691       19.551469       13.058658
  Si          23.458842        1.292720       21.299440
  Si          17.372592        3.045559       19.551469
  Si          11.286342        4.793530       21.304309
  Si           5.200092        3.040691       23.052280
  Si          19.144908        1.292720       21.304309
  Si           0.886158        3.045559       23.052280
  Si           6.972408        4.793530       21.299440
  Si          13.058658        3.040691       19.551469
  Si          23.052280       17.372592       15.213190
  Si          21.299440       11.286342       13.465219
  Si          19.551469        5.200092       15.218059
  Si          21.304309       23.458842       16.966030
  Si          23.052280       13.058658       15.218059
  Si          21.299440       19.144908       16.966030
  Si          19.551469        0.886158       15.213190
  Si          21.304309        6.972408       13.465219
  Si          23.052280       15.218059       13.058658
  Si          21.299440       16.966030       19.144908
  Si          19.551469       15.213190        0.886158
  Si          21.304309       13.465219        6.972408
  Si          23.052280       15.213190       17.372592
  Si          21.299440       13.465219       11.286342
  Si          19.551469       15.218059        5.200092
  Si          21.304309       16.966030       23.458842
  Si           0.886158       10.879780       15.218059
  Si           6.972408        9.126940       16.966030
  Si          13.058658        7.378970       15.213190
  Si          19.144908        9.131809       13.465219
  Si           5.200092       10.879780       15.213190
  Si          23.458842        9.126940       13.465219
  Si          17.372592        7.378970       15.218059
  Si          11.286342        9.131809       16.966030
  Si           1.292720       19.144908       21.304309
  Si           3.045559        0.886158       23.052280
  Si           4.793530        6.972408       21.299440
  Si           3.040691       13.058658       19.551469
  Si           1.292720       23.458842       21.299440
  Si           3.045559       17.372592       19.551469
  Si           4.793530       11.286342       21.304309
  Si           3.040691        5.200092       23.052280
  Si           1.292720        9.126940       11.286342
  Si           3.045559        7.378970        5.200092
  Si           4.793530        9.131809       23.458842
  Si           3.040691       10.879780       17.372592
  Si           1.292720        9.131809        6.972408
  Si           3.045559       10.879780       13.058658
  Si           4.793530        9.126940       19.144908
  Si           3.040691        7.378970        0.886158
  Si          23.458842       13.465219        9.126940
  Si          17.372592       15.218059        7.378970
  Si          11.286342       16.966030        9.131809
  Si           5.200092       15.213190       10.879780
  Si          19.144908       13.465219        9.131809
  Si           0.886158       15.218059       10.879780
  Si           6.972408       16.966030        9.126940
  Si          13.058658       15.213190        7.378970
  Si          23.052280        5.200092        3.040691
  Si          21.299440       23.458842        1.292720
  Si          19.551469       17.372592        3.045559
  Si          21.304309       11.286342        4.793530
  Si          23.052280        0.886158        3.045559
  Si          21.299440        6.972408        4.793530
  Si          19.551469       13.058658        3.040691
  Si          21.304309       19.144908        1.292720
  Si          10.879780        3.045559       13.058658
  Si           9.126940        4.793530       19.144908
  Si           7.378970        3.040691        0.886158
  Si           9.131809        1.292720        6.972408
  Si          10.879780        3.040691       17.372592
  Si           9.126940        1.292720       11.286342
  Si           7.378970        3.045559        5.200092
  Si           9.131809        4.793530       23.458842
  Si          13.058658       23.052280       15.218059
  Si          19.144908       21.299440       16.966030
  Si           0.886158       19.551469       15.213190
  Si           6.972408       21.304309       13.465219
  Si          17.372592       23.052280       15.213190
  Si          11.286342       21.299440       13.465219
  Si           5.200092       19.551469       15.218059
  Si          23.458842       21.304309       16.966030
  Si          13.465219        6.972408       21.304309
  Si          15.218059       13.058658       23.052280
  Si          16.966030       19.144908       21.299440
  Si          15.213190        0.886158       19.551469
  Si          13.465219       11.286342       21.299440
  Si          15.218059        5.200092       19.551469
  Si          16.966030       23.458842       21.304309
  Si          15.213190       17.372592       23.052280
  Si          13.465219       21.299440       11.286342
  Si          15.218059       19.551469        5.200092
  Si          16.966030       21.304309       23.458842
  Si          15.213190       23.052280       17.372592
  Si          13.465219       21.304309        6.972408
  Si          15.218059       23.052280       13.058658
  Si          16.966030       21.299440       19.144908
  Si          15.213190       19.551469        0.886158
  Si          11.286342        1.292720        9.126940
  Si           5.200092        3.045559        7.378970
  Si          23.458842        4.793530        9.131809
  Si          17.372592        3.040691       10.879780
  Si           6.972408        1.292720        9.131809
  Si          13.058658        3.045559       10.879780
  Si          19.144908        4.793530        9.126940
  Si           0.886158        3.040691        7.378970
  Si          10.879780       17.372592        3.040691
  Si           9.126940       11.286342        1.292720
  Si           7.378970        5.200092        3.045559
  Si           9.131809       23.458842        4.793530
  Si          10.879780       13.058658        3.045559
  Si           9.126940       19.144908        4.793530
  Si           7.378970        0.886158        3.040691
  Si           9.131809        6.972408        1.292720
  Si          10.879780       15.218059        0.886158
  Si           9.126940       16.966030        6.972408
  Si           7.378970       15.213190       13.058658
  Si           9.131809       13.465219       19.144908
  Si          10.879780       15.213190        5.200092
  Si           9.126940       13.465219       23.458842
  Si           7.378970       15.218059       17.372592
  Si           9.131809       16.966030       11.286342
  Si          13.058658       10.879780        3.045559
  Si          19.144908        9.126940        4.793530
  Si           0.886158        7.378970        3.040691
  Si           6.972408        9.131809        1.292720
  Si          17.372592       10.879780        3.040691
  Si          11.286342        9.126940        1.292720
  Si           5.200092        7.378970        3.045559
  Si          23.458842        9.131809        4.793530
  Si          13.465219       19.144908        9.131809
  Si          15.218059        0.886158       10.879780
  Si          16.966030        6.972408        9.126940
  Si          15.213190       13.058658        7.378970
  Si          13.465219       23.458842        9.126940
  Si          15.218059       17.372592        7.378970
  Si          16.966030       11.286342        9.131809
  Si          15.213190        5.200092       10.879780
  Si          13.465219        9.126940       23.458842
  Si          15.218059        7.378970       17.372592
  Si          16.966030        9.131809       11.286342
  Si          15.213190       10.879780        5.200092
  Si          13.465219        9.131809       19.144908
  Si          15.218059       10.879780        0.886158
  Si          16.966030        9.126940        6.972408
  Si          15.213190        7.378970       13.058658
  Si          11.286342       13.465219       21.299440
  Si           5.200092       15.218059       19.551469
  Si          23.458842       16.966030       21.304309
  Si          17.372592       15.213190       23.052280
  Si           6.972408       13.465219       21.304309
  Si          13.058658       15.218059       23.052280
  Si          19.144908       16.966030       21.299440
  Si           0.886158       15.213190       19.551469
  Si          10.879780        5.200092       15.213190
  Si           9.126940       23.458842       13.465219
  Si           7.378970       17.372592       15.218059
  Si           9.131809       11.286342       16.966030
  Si          10.879780        0.886158       15.218059
  Si           9.126940        6.972408       16.966030
  Si           7.378970       13.058658       15.213190
  Si           9.131809       19.144908       13.465219
  O           12.199329        7.487975        4.551824
  O           12.126519        6.006380        6.243906
  O           10.275172        6.291693        4.917734
  C           13.525819        7.341053        5.036591
  C           13.320066        6.759734        6.398635
  C           11.428174        6.570110        5.211182
  H           14.041293        8.304674        5.063942
  H           14.066193        6.661962        4.368788
  H           14.148864        6.119616        6.712372
  H           13.149417        7.527882        7.160253
  O           13.848827        4.568676        5.010273
  O           13.829627        2.467822        4.204288
  O           15.417990        3.065730        5.749355
  C           12.641757        4.412140        4.279084
  C           12.928451        3.227741        3.412807
  C           14.453806        3.342214        5.051540
  H           12.415436        5.311600        3.700485
  H           11.828290        4.225296        4.987949
  H           12.030158        2.650175        3.179193
  H           13.432629        3.503186        2.480515
  O            2.993869        3.672067       18.064194
  O            4.407623        4.906931       19.305151
  O            2.503212        4.065910       20.271342
  C            4.177176        3.848228       17.299398
  C            4.823522        5.027457       17.952916
  C            3.234565        4.202714       19.302091
  H            3.939977        4.027815       16.247490
  H            4.782596        2.939544       17.382400
  H            5.913771        5.006095       17.875519
  H            4.452673        5.979682       17.559254
  O            3.489964       16.127110       15.386802
  O            4.245567       14.238913       16.349787
  O            3.695516       16.033397       17.670730
  C            3.516000       15.125739       14.380454
  C            4.447483       14.104704       14.950767
  C            3.800989       15.514048       16.569734
  H            3.870572       15.534737       13.430704
  H            2.500007       14.738789       14.249469
  H            4.214477       13.089979       14.617405
  H            5.496952       14.325112       14.728804
  O           18.053032       15.735802       11.392999
  O           19.604239       15.350091       12.976839
  O           18.169650       13.663550       12.372556
  C           18.938827       16.845541       11.390063
  C           19.599215       16.747961       12.727895
  C           18.572002       14.811619       12.258137
  H           18.391473       17.782616       11.258453
  H           19.646734       16.722411       10.563725
  H           20.616384       17.148523       12.725105
  H           19.020457       17.239035       13.517273
  O           15.018520       14.823394       14.890242
  O           15.832893       16.891987       14.541983
  O           17.230955       15.249764       15.326935
  C           14.022567       15.552370       14.188222
  C           14.420060       16.973801       14.426893
  C           16.128196       15.621174       14.954085
  H           13.025615       15.323871       14.574099
  H           14.071528       15.276009       13.129753
  H           14.132082       17.634760       13.605133
  H           14.017646       17.369078       15.365536
  O            5.077107       11.995110        4.648897
  O            4.545633       10.230680        3.357430
  O            6.755120       10.721773        3.737719
  C            3.679432       11.784056        4.783516
  C            3.349203       10.962537        3.578740
  C            5.567825       10.960840        3.899637
  H            3.140501       12.734909        4.804935
  H            3.498270       11.245812        5.719786
  H            2.504368       10.289516        3.747221
  H            3.149772       11.577274        2.694683
  O            7.523529        8.724560        6.819255
  O            8.559282       10.718544        6.697549
  O            9.805192        8.794515        6.581599
  C            6.513980        9.712036        6.671399
  C            7.214687       10.968234        7.079329
  C            8.727852        9.360780        6.689868
  H            5.651209        9.487186        7.303931
  H            6.197485        9.730622        5.623252
  H            6.821665       11.852993        6.571565
  H            7.185757       11.131112        8.161857
  O            5.916171        8.888343       10.524723
  O            6.763988        6.805304       10.600382
  O            8.147698        8.597601       10.975408
  C            4.817920        7.988616       10.502434
  C            5.449394        6.702987       10.073682
  C            7.043611        8.139015       10.722957
  H            4.046194        8.330476        9.807741
  H            4.395390        7.931618       11.511071
  H            4.934016        5.826642       10.475543
  H            5.517898        6.613025        8.984441
  O            9.824656       14.361250       10.501699
  O            8.510879       12.794667        9.561818
  O            9.346490       14.490703        8.260726
  C            9.658497       13.325536       11.458698
  C            8.440187       12.611135       10.968003
  C            9.237098       13.933323        9.342576
  H            9.528594       13.737838       12.462769
  H           10.550953       12.691204       11.442133
  H            8.443783       11.548467       11.224540
  H            7.512972       13.066653       11.331333
  O           17.662953        4.461028        5.775532
  O           15.857743        5.738401        5.359473
  O           16.024909        4.648073        7.372149
  C           17.933079        5.193399        4.589436
  C           16.570109        5.610386        4.137923
  C           16.474004        4.923733        6.269713
  H           18.447667        4.570068        3.853444
  H           18.568654        6.047420        4.845993
  H           16.579651        6.556091        3.589617
  H           16.078709        4.844958        3.528104
  O           13.685647       11.386361        8.031721
  O           12.379782        9.593657        8.411845
  O           14.647247        9.309176        8.199022
  C           12.392271       11.872694        8.358552
  C           11.518671       10.683534        8.117405
  C           13.661014       10.030424        8.212656
  H           12.124643       12.725783        7.729552
  H           12.393896       12.185081        9.408094
  H           10.637053       10.671276        8.763693
  H           11.200968       10.602450        7.072549
  O           10.117718        6.657235        9.766295
  O           11.453774        4.847867        9.834903
  O           12.391583        6.941869        9.892311
  C            9.281209        5.526698        9.961999
  C           10.147029        4.391180        9.518845
  C           11.410710        6.215398        9.836017
  H            8.364484        5.611652        9.372572
  H            9.022462        5.466106       11.024311
  H            9.920453        3.459584       10.044088
  H           10.091283        4.218944        8.438818
  O            6.994059        5.571156       12.674253
  O            6.845259        6.196893       14.830611
  O            7.210973        7.789967       13.219402
  C            6.530667        4.445633       13.405436
  C            6.917848        4.779019       14.810560
  C            7.033300        6.625732       13.545023
  H            7.000039        3.525835       13.046704
  H            5.445804        4.370729       13.276634
  H            6.239997        4.342083       15.548593
  H            7.945432        4.480730       15.043646
  O           13.406164        8.418895       11.871270
  O           11.329700        9.213735       12.217813
  O           11.680433        6.945563       12.215514
  C           13.521467        9.821169       12.062305
  C           12.132306       10.308178       11.800612
  C           12.100326        8.088264       12.110810
  H           14.254433       10.250728       11.374362
  H           13.842715       10.005834       13.092755
  H           11.889020       11.210430       12.367923
  H           11.945782       10.489808       10.736915
