         856
  Built with Packmol                                             
  O           21.808251        2.536749        0.000000
  O           21.808251        3.549501        6.086250
  O           20.795499        3.549501       12.172500
  O           20.795499        2.536749       18.258750
  O            0.000000       21.808251        2.536749
  O            6.086250       21.808251        3.549501
  O           12.172500       20.795499        3.549501
  O           18.258750       20.795499        2.536749
  O            2.536749        6.086250        8.622999
  O            2.536749       12.172500        9.635751
  O            3.549501       18.258750        9.635751
  O            3.549501        0.000000        8.622999
  O            2.536749       21.808251        0.000000
  O            2.536749       20.795499       18.258750
  O            3.549501       20.795499       12.172500
  O            3.549501       21.808251        6.086250
  O            0.000000        2.536749       21.808251
  O           18.258750        2.536749       20.795499
  O           12.172500        3.549501       20.795499
  O            6.086250        3.549501       21.808251
  O           21.808251       18.258750       15.722001
  O           21.808251       12.172500       14.709249
  O           20.795499        6.086250       14.709249
  O           20.795499        0.000000       15.722001
  O           21.808251       14.709249       12.172500
  O           21.808251       15.722001       18.258750
  O           20.795499       15.722001        0.000000
  O           20.795499       14.709249        6.086250
  O            0.000000        9.635751       14.709249
  O            6.086250        9.635751       15.722001
  O           12.172500        8.622999       15.722001
  O           18.258750        8.622999       14.709249
  O            2.536749       18.258750       20.795499
  O            2.536749        0.000000       21.808251
  O            3.549501        6.086250       21.808251
  O            3.549501       12.172500       20.795499
  O            2.536749        9.635751       12.172500
  O            2.536749        8.622999        6.086250
  O            3.549501        8.622999        0.000000
  O            3.549501        9.635751       18.258750
  O            0.000000       14.709249        9.635751
  O           18.258750       14.709249        8.622999
  O           12.172500       15.722001        8.622999
  O            6.086250       15.722001        9.635751
  O           21.808251        6.086250        3.549501
  O           21.808251        0.000000        2.536749
  O           20.795499       18.258750        2.536749
  O           20.795499       12.172500        3.549501
  O            9.635751        2.536749       12.172500
  O            9.635751        3.549501       18.258750
  O            8.622999        3.549501        0.000000
  O            8.622999        2.536749        6.086250
  O           12.172500       21.808251       14.709249
  O           18.258750       21.808251       15.722001
  O            0.000000       20.795499       15.722001
  O            6.086250       20.795499       14.709249
  O           14.709249        6.086250       20.795499
  O           14.709249       12.172500       21.808251
  O           15.722001       18.258750       21.808251
  O           15.722001        0.000000       20.795499
  O           14.709249       21.808251       12.172500
  O           14.709249       20.795499        6.086250
  O           15.722001       20.795499        0.000000
  O           15.722001       21.808251       18.258750
  O           12.172500        2.536749        9.635751
  O            6.086250        2.536749        8.622999
  O            0.000000        3.549501        8.622999
  O           18.258750        3.549501        9.635751
  O            9.635751       18.258750        3.549501
  O            9.635751       12.172500        2.536749
  O            8.622999        6.086250        2.536749
  O            8.622999        0.000000        3.549501
  O            9.635751       14.709249        0.000000
  O            9.635751       15.722001        6.086250
  O            8.622999       15.722001       12.172500
  O            8.622999       14.709249       18.258750
  O           12.172500        9.635751        2.536749
  O           18.258750        9.635751        3.549501
  O            0.000000        8.622999        3.549501
  O            6.086250        8.622999        2.536749
  O           14.709249       18.258750        8.622999
  O           14.709249        0.000000        9.635751
  O           15.722001        6.086250        9.635751
  O           15.722001       12.172500        8.622999
  O           14.709249        9.635751        0.000000
  O           14.709249        8.622999       18.258750
  O           15.722001        8.622999       12.172500
  O           15.722001        9.635751        6.086250
  O           12.172500       14.709249       21.808251
  O            6.086250       14.709249       20.795499
  O            0.000000       15.722001       20.795499
  O           18.258750       15.722001       21.808251
  O            9.635751        6.086250       15.722001
  O            9.635751        0.000000       14.709249
  O            8.622999       18.258750       14.709249
  O            8.622999       12.172500       15.722001
  O           23.539180        1.855089        1.855089
  O           22.489911        5.280430        7.941339
  O           19.064570        4.231161       14.027589
  O           20.113839        0.805820       20.113839
  O           23.539180        4.231161        4.231161
  O           22.489911        0.805820       22.489911
  O           19.064570        1.855089       16.403661
  O           20.113839        5.280430       10.317411
  O            1.855089       23.539180        1.855089
  O            7.941339       22.489911        5.280430
  O           14.027589       19.064570        4.231161
  O           20.113839       20.113839        0.805820
  O            4.231161       23.539180        4.231161
  O           22.489911       22.489911        0.805820
  O           16.403661       19.064570        1.855089
  O           10.317411       20.113839        5.280430
  O            0.805820        7.941339        7.941339
  O            1.855089       14.027589       11.366680
  O            5.280430       20.113839       10.317411
  O            4.231161        1.855089        6.892069
  O            0.805820       10.317411       10.317411
  O            1.855089        4.231161        6.892069
  O            5.280430       22.489911        7.941339
  O            4.231161       16.403661       11.366680
  O            0.805820       22.489911       22.489911
  O            1.855089       19.064570       16.403661
  O            0.805820       20.113839       20.113839
  O            4.231161       19.064570       14.027589
  O           16.403661        1.855089       19.064570
  O           10.317411        5.280430       20.113839
  O            4.231161        4.231161       23.539180
  O            1.855089        1.855089       23.539180
  O            7.941339        5.280430       22.489911
  O           14.027589        4.231161       19.064570
  O           23.539180       16.403661       16.403661
  O           22.489911       10.317411       12.978319
  O           20.113839       22.489911       17.452930
  O           23.539180       14.027589       14.027589
  O           22.489911       20.113839       17.452930
  O           20.113839        7.941339       12.978319
  O           22.489911       17.452930       20.113839
  O           19.064570       16.403661        1.855089
  O           20.113839       12.978319        7.941339
  O           22.489911       12.978319       10.317411
  O           19.064570       14.027589        4.231161
  O           20.113839       17.452930       22.489911
  O            1.855089       11.366680       14.027589
  O            7.941339       10.317411       17.452930
  O           14.027589        6.892069       16.403661
  O            4.231161       11.366680       16.403661
  O           16.403661        6.892069       14.027589
  O           10.317411        7.941339       17.452930
  O            5.280430        7.941339       22.489911
  O            4.231161       14.027589       19.064570
  O            1.855089       16.403661       19.064570
  O            5.280430       10.317411       20.113839
  O            1.855089        6.892069        4.231161
  O            4.231161        6.892069        1.855089
  O           16.403661       14.027589        6.892069
  O           10.317411       17.452930        7.941339
  O            7.941339       17.452930       10.317411
  O           14.027589       16.403661        6.892069
  O           20.113839       10.317411        5.280430
  O           22.489911        7.941339        5.280430
  O           11.366680        1.855089       14.027589
  O            6.892069        4.231161        1.855089
  O            7.941339        0.805820        7.941339
  O           11.366680        4.231161       16.403661
  O           10.317411        0.805820       10.317411
  O            6.892069        1.855089        4.231161
  O           14.027589       23.539180       14.027589
  O            7.941339       20.113839       12.978319
  O           16.403661       23.539180       16.403661
  O           10.317411       22.489911       12.978319
  O           12.978319        7.941339       20.113839
  O           14.027589       14.027589       23.539180
  O           17.452930       20.113839       22.489911
  O           12.978319       10.317411       22.489911
  O           17.452930       22.489911       20.113839
  O           16.403661       16.403661       23.539180
  O           12.978319       22.489911       10.317411
  O           12.978319       20.113839        7.941339
  O           16.403661        4.231161       11.366680
  O           14.027589        1.855089       11.366680
  O           11.366680       16.403661        4.231161
  O           10.317411       10.317411        0.805820
  O           11.366680       14.027589        1.855089
  O            7.941339        7.941339        0.805820
  O            6.892069       16.403661       14.027589
  O            7.941339       12.978319       20.113839
  O           10.317411       12.978319       22.489911
  O            6.892069       14.027589       16.403661
  O           14.027589       11.366680        1.855089
  O           16.403661       11.366680        4.231161
  O           17.452930        7.941339       10.317411
  O           17.452930       10.317411        7.941339
  O           24.262227        3.478900       24.262227
  O           20.866099        6.003477        6.003477
  O           18.341523        2.607349       12.089727
  O           21.737651        0.082773       18.175977
  O           24.262227        2.607349        6.169023
  O           20.866099        0.082773        0.082773
  O           18.341523        3.478900       18.341523
  O           21.737651        6.003477       12.255273
  O           24.262227       24.262227        3.478900
  O            6.003477       20.866099        6.003477
  O           12.089727       18.341523        2.607349
  O           18.175977       21.737651        0.082773
  O            6.169023       24.262227        2.607349
  O            0.082773       20.866099        0.082773
  O           18.341523       18.341523        3.478900
  O           12.255273       21.737651        6.003477
  O            0.082773        6.003477        9.565150
  O            3.478900       12.089727       12.089727
  O            6.003477       18.175977        8.693599
  O            2.607349       24.262227        6.169023
  O            0.082773       12.255273        8.693599
  O            3.478900        6.169023        6.169023
  O            6.003477        0.082773        9.565150
  O            2.607349       18.341523       12.089727
  O            3.478900       18.341523       18.341523
  O            6.003477       21.737651       12.255273
  O            0.082773       21.737651       18.175977
  O            3.478900       24.262227       24.262227
  O            0.082773        0.082773       20.866099
  O           12.255273        6.003477       21.737651
  O            6.169023        2.607349       24.262227
  O           18.175977        0.082773       21.737651
  O            6.003477        6.003477       20.866099
  O           12.089727        2.607349       18.341523
  O           24.262227       18.341523       14.779849
  O           20.866099       12.255273       12.255273
  O           18.341523        6.169023       15.651400
  O           24.262227       12.089727       15.651400
  O           20.866099       18.175977       18.175977
  O           18.341523       24.262227       14.779849
  O           24.262227       15.651400       12.089727
  O           18.341523       14.779849       24.262227
  O           21.737651       12.255273        6.003477
  O           24.262227       14.779849       18.341523
  O           18.341523       15.651400        6.169023
  O           21.737651       18.175977        0.082773
  O            6.003477        8.693599       18.175977
  O           12.089727        6.169023       14.779849
  O           18.175977        9.565150       12.255273
  O            6.169023       12.089727       14.779849
  O            0.082773        8.693599       12.255273
  O           12.255273        9.565150       18.175977
  O            0.082773       18.175977       21.737651
  O            2.607349       12.089727       18.341523
  O            6.003477       12.255273       21.737651
  O            2.607349        6.169023       24.262227
  O            6.003477        9.565150        0.082773
  O            0.082773        9.565150        6.003477
  O           12.255273       18.175977        9.565150
  O            6.169023       14.779849       12.089727
  O           18.175977       12.255273        9.565150
  O           12.089727       14.779849        6.169023
  O           24.262227        6.169023        2.607349
  O           18.341523       12.089727        2.607349
  O           12.089727        3.478900       12.089727
  O            8.693599        6.003477       18.175977
  O            9.565150        0.082773        6.003477
  O            8.693599        0.082773       12.255273
  O            6.169023        3.478900        6.169023
  O            9.565150        6.003477        0.082773
  O           12.089727       24.262227       15.651400
  O           18.175977       20.866099       18.175977
  O           12.255273       20.866099       12.255273
  O            6.169023       18.341523       15.651400
  O           15.651400       12.089727       24.262227
  O           18.175977       18.175977       20.866099
  O           14.779849       24.262227       18.341523
  O           12.255273       12.255273       20.866099
  O           15.651400        6.169023       18.341523
  O           14.779849       18.341523       24.262227
  O           15.651400       18.341523        6.169023
  O           15.651400       24.262227       12.089727
  O           12.255273        0.082773        8.693599
  O           18.175977        6.003477        8.693599
  O            8.693599       12.255273        0.082773
  O            6.169023        6.169023        3.478900
  O           12.089727       12.089727        3.478900
  O            8.693599       18.175977        6.003477
  O           12.089727       15.651400       24.262227
  O            9.565150       12.255273       18.175977
  O            6.169023       15.651400       18.341523
  O            9.565150       18.175977       12.255273
  O           18.175977        8.693599        6.003477
  O           12.255273        8.693599        0.082773
  O           14.779849       12.089727        6.169023
  O           14.779849        6.169023       12.089727
  O           22.599463        4.309065        1.777185
  O           20.035935        4.340714        7.863435
  O           20.004286        1.777185       13.949685
  O           22.567815        1.745536       20.035935
  O           22.599463        1.777185        4.309065
  O           20.035935        1.745536       22.567815
  O           20.004286        4.309065       16.481565
  O           22.567815        4.340714       10.395315
  O            1.777185       22.599463        4.309065
  O            7.863435       20.035935        4.340714
  O           13.949685       20.004286        1.777185
  O           20.035935       22.567815        1.745536
  O            4.309065       22.599463        1.777185
  O           22.567815       20.035935        1.745536
  O           16.481565       20.004286        4.309065
  O           10.395315       22.567815        4.340714
  O            1.745536        7.863435       10.395315
  O            4.309065       13.949685       10.426964
  O            4.340714       20.035935        7.863435
  O            1.777185        1.777185        7.831786
  O            1.745536       10.395315        7.863435
  O            4.309065        4.309065        7.831786
  O            4.340714       22.567815       10.395315
  O            1.777185       16.481565       10.426964
  O            1.745536       20.035935       22.567815
  O            4.309065       20.004286       16.481565
  O            1.745536       22.567815       20.035935
  O            1.777185       20.004286       13.949685
  O           16.481565        4.309065       20.004286
  O           10.395315        4.340714       22.567815
  O            4.309065        1.777185       22.599463
  O            1.777185        4.309065       22.599463
  O            7.863435        4.340714       20.035935
  O           13.949685        1.777185       20.004286
  O           22.599463       16.481565       13.949685
  O           20.035935       10.395315       13.918036
  O           22.567815       22.567815       16.513214
  O           22.599463       13.949685       16.481565
  O           20.035935       20.035935       16.513214
  O           22.567815        7.863435       13.918036
  O           20.035935       16.513214       20.035935
  O           20.004286       13.949685        1.777185
  O           22.567815       13.918036        7.863435
  O           20.035935       13.918036       10.395315
  O           20.004286       16.481565        4.309065
  O           22.567815       16.513214       22.567815
  O            1.777185       10.426964       16.481565
  O            7.863435        7.863435       16.513214
  O           13.949685        7.831786       13.949685
  O            4.309065       10.426964       13.949685
  O           16.481565        7.831786       16.481565
  O           10.395315       10.395315       16.513214
  O            4.340714        7.863435       20.035935
  O            1.777185       13.949685       20.004286
  O            4.309065       16.481565       20.004286
  O            4.340714       10.395315       22.567815
  O            4.309065        7.831786        4.309065
  O            1.777185        7.831786        1.777185
  O           16.481565       16.481565        7.831786
  O           10.395315       16.513214       10.395315
  O            7.863435       16.513214        7.863435
  O           13.949685       13.949685        7.831786
  O           22.567815       10.395315        4.340714
  O           20.035935        7.863435        4.340714
  O           10.426964        4.309065       13.949685
  O            7.831786        1.777185        1.777185
  O           10.395315        1.745536        7.863435
  O           10.426964        1.777185       16.481565
  O            7.863435        1.745536       10.395315
  O            7.831786        4.309065        4.309065
  O           13.949685       22.599463       16.481565
  O            7.863435       22.567815       13.918036
  O           16.481565       22.599463       13.949685
  O           10.395315       20.035935       13.918036
  O           13.918036        7.863435       22.567815
  O           16.481565       13.949685       22.599463
  O           16.513214       20.035935       20.035935
  O           13.918036       10.395315       20.035935
  O           16.513214       22.567815       22.567815
  O           13.949685       16.481565       22.599463
  O           13.918036       20.035935       10.395315
  O           13.918036       22.567815        7.863435
  O           16.481565        1.777185       10.426964
  O           13.949685        4.309065       10.426964
  O           10.426964       16.481565        1.777185
  O            7.863435       10.395315        1.745536
  O           10.426964       13.949685        4.309065
  O           10.395315        7.863435        1.745536
  O            7.831786       13.949685       13.949685
  O           10.395315       13.918036       20.035935
  O            7.863435       13.918036       22.567815
  O            7.831786       16.481565       16.481565
  O           13.949685       10.426964        4.309065
  O           16.481565       10.426964        1.777185
  O           16.513214        7.863435        7.863435
  O           16.513214       10.395315       10.395315
  Si          23.052280        3.045559        0.886158
  Si          21.299440        4.793530        6.972408
  Si          19.551469        3.040691       13.058658
  Si          21.304309        1.292720       19.144908
  Si          23.052280        3.040691        5.200092
  Si          21.299440        1.292720       23.458842
  Si          19.551469        3.045559       17.372592
  Si          21.304309        4.793530       11.286342
  Si           0.886158       23.052280        3.045559
  Si           6.972408       21.299440        4.793530
  Si          13.058658       19.551469        3.040691
  Si          19.144908       21.304309        1.292720
  Si           5.200092       23.052280        3.040691
  Si          23.458842       21.299440        1.292720
  Si          17.372592       19.551469        3.045559
  Si          11.286342       21.304309        4.793530
  Si           1.292720        6.972408        9.131809
  Si           3.045559       13.058658       10.879780
  Si           4.793530       19.144908        9.126940
  Si           3.040691        0.886158        7.378970
  Si           1.292720       11.286342        9.126940
  Si           3.045559        5.200092        7.378970
  Si           4.793530       23.458842        9.131809
  Si           3.040691       17.372592       10.879780
  Si           1.292720       21.299440       23.458842
  Si           3.045559       19.551469       17.372592
  Si           4.793530       21.304309       11.286342
  Si           3.040691       23.052280        5.200092
  Si           1.292720       21.304309       19.144908
  Si           3.045559       23.052280        0.886158
  Si           4.793530       21.299440        6.972408
  Si           3.040691       19.551469       13.058658
  Si          23.458842        1.292720       21.299440
  Si          17.372592        3.045559       19.551469
  Si          11.286342        4.793530       21.304309
  Si           5.200092        3.040691       23.052280
  Si          19.144908        1.292720       21.304309
  Si           0.886158        3.045559       23.052280
  Si           6.972408        4.793530       21.299440
  Si          13.058658        3.040691       19.551469
  Si          23.052280       17.372592       15.213190
  Si          21.299440       11.286342       13.465219
  Si          19.551469        5.200092       15.218059
  Si          21.304309       23.458842       16.966030
  Si          23.052280       13.058658       15.218059
  Si          21.299440       19.144908       16.966030
  Si          19.551469        0.886158       15.213190
  Si          21.304309        6.972408       13.465219
  Si          23.052280       15.218059       13.058658
  Si          21.299440       16.966030       19.144908
  Si          19.551469       15.213190        0.886158
  Si          21.304309       13.465219        6.972408
  Si          23.052280       15.213190       17.372592
  Si          21.299440       13.465219       11.286342
  Si          19.551469       15.218059        5.200092
  Si          21.304309       16.966030       23.458842
  Si           0.886158       10.879780       15.218059
  Si           6.972408        9.126940       16.966030
  Si          13.058658        7.378970       15.213190
  Si          19.144908        9.131809       13.465219
  Si           5.200092       10.879780       15.213190
  Si          23.458842        9.126940       13.465219
  Si          17.372592        7.378970       15.218059
  Si          11.286342        9.131809       16.966030
  Si           1.292720       19.144908       21.304309
  Si           3.045559        0.886158       23.052280
  Si           4.793530        6.972408       21.299440
  Si           3.040691       13.058658       19.551469
  Si           1.292720       23.458842       21.299440
  Si           3.045559       17.372592       19.551469
  Si           4.793530       11.286342       21.304309
  Si           3.040691        5.200092       23.052280
  Si           1.292720        9.126940       11.286342
  Si           3.045559        7.378970        5.200092
  Si           4.793530        9.131809       23.458842
  Si           3.040691       10.879780       17.372592
  Si           1.292720        9.131809        6.972408
  Si           3.045559       10.879780       13.058658
  Si           4.793530        9.126940       19.144908
  Si           3.040691        7.378970        0.886158
  Si          23.458842       13.465219        9.126940
  Si          17.372592       15.218059        7.378970
  Si          11.286342       16.966030        9.131809
  Si           5.200092       15.213190       10.879780
  Si          19.144908       13.465219        9.131809
  Si           0.886158       15.218059       10.879780
  Si           6.972408       16.966030        9.126940
  Si          13.058658       15.213190        7.378970
  Si          23.052280        5.200092        3.040691
  Si          21.299440       23.458842        1.292720
  Si          19.551469       17.372592        3.045559
  Si          21.304309       11.286342        4.793530
  Si          23.052280        0.886158        3.045559
  Si          21.299440        6.972408        4.793530
  Si          19.551469       13.058658        3.040691
  Si          21.304309       19.144908        1.292720
  Si          10.879780        3.045559       13.058658
  Si           9.126940        4.793530       19.144908
  Si           7.378970        3.040691        0.886158
  Si           9.131809        1.292720        6.972408
  Si          10.879780        3.040691       17.372592
  Si           9.126940        1.292720       11.286342
  Si           7.378970        3.045559        5.200092
  Si           9.131809        4.793530       23.458842
  Si          13.058658       23.052280       15.218059
  Si          19.144908       21.299440       16.966030
  Si           0.886158       19.551469       15.213190
  Si           6.972408       21.304309       13.465219
  Si          17.372592       23.052280       15.213190
  Si          11.286342       21.299440       13.465219
  Si           5.200092       19.551469       15.218059
  Si          23.458842       21.304309       16.966030
  Si          13.465219        6.972408       21.304309
  Si          15.218059       13.058658       23.052280
  Si          16.966030       19.144908       21.299440
  Si          15.213190        0.886158       19.551469
  Si          13.465219       11.286342       21.299440
  Si          15.218059        5.200092       19.551469
  Si          16.966030       23.458842       21.304309
  Si          15.213190       17.372592       23.052280
  Si          13.465219       21.299440       11.286342
  Si          15.218059       19.551469        5.200092
  Si          16.966030       21.304309       23.458842
  Si          15.213190       23.052280       17.372592
  Si          13.465219       21.304309        6.972408
  Si          15.218059       23.052280       13.058658
  Si          16.966030       21.299440       19.144908
  Si          15.213190       19.551469        0.886158
  Si          11.286342        1.292720        9.126940
  Si           5.200092        3.045559        7.378970
  Si          23.458842        4.793530        9.131809
  Si          17.372592        3.040691       10.879780
  Si           6.972408        1.292720        9.131809
  Si          13.058658        3.045559       10.879780
  Si          19.144908        4.793530        9.126940
  Si           0.886158        3.040691        7.378970
  Si          10.879780       17.372592        3.040691
  Si           9.126940       11.286342        1.292720
  Si           7.378970        5.200092        3.045559
  Si           9.131809       23.458842        4.793530
  Si          10.879780       13.058658        3.045559
  Si           9.126940       19.144908        4.793530
  Si           7.378970        0.886158        3.040691
  Si           9.131809        6.972408        1.292720
  Si          10.879780       15.218059        0.886158
  Si           9.126940       16.966030        6.972408
  Si           7.378970       15.213190       13.058658
  Si           9.131809       13.465219       19.144908
  Si          10.879780       15.213190        5.200092
  Si           9.126940       13.465219       23.458842
  Si           7.378970       15.218059       17.372592
  Si           9.131809       16.966030       11.286342
  Si          13.058658       10.879780        3.045559
  Si          19.144908        9.126940        4.793530
  Si           0.886158        7.378970        3.040691
  Si           6.972408        9.131809        1.292720
  Si          17.372592       10.879780        3.040691
  Si          11.286342        9.126940        1.292720
  Si           5.200092        7.378970        3.045559
  Si          23.458842        9.131809        4.793530
  Si          13.465219       19.144908        9.131809
  Si          15.218059        0.886158       10.879780
  Si          16.966030        6.972408        9.126940
  Si          15.213190       13.058658        7.378970
  Si          13.465219       23.458842        9.126940
  Si          15.218059       17.372592        7.378970
  Si          16.966030       11.286342        9.131809
  Si          15.213190        5.200092       10.879780
  Si          13.465219        9.126940       23.458842
  Si          15.218059        7.378970       17.372592
  Si          16.966030        9.131809       11.286342
  Si          15.213190       10.879780        5.200092
  Si          13.465219        9.131809       19.144908
  Si          15.218059       10.879780        0.886158
  Si          16.966030        9.126940        6.972408
  Si          15.213190        7.378970       13.058658
  Si          11.286342       13.465219       21.299440
  Si           5.200092       15.218059       19.551469
  Si          23.458842       16.966030       21.304309
  Si          17.372592       15.213190       23.052280
  Si           6.972408       13.465219       21.304309
  Si          13.058658       15.218059       23.052280
  Si          19.144908       16.966030       21.299440
  Si           0.886158       15.213190       19.551469
  Si          10.879780        5.200092       15.213190
  Si           9.126940       23.458842       13.465219
  Si           7.378970       17.372592       15.218059
  Si           9.131809       11.286342       16.966030
  Si          10.879780        0.886158       15.218059
  Si           9.126940        6.972408       16.966030
  Si           7.378970       13.058658       15.213190
  Si           9.131809       19.144908       13.465219
  O            3.408681       14.583921       14.623331
  O            3.176512       16.643337       15.499955
  O            2.531839       16.264914       13.329974
  C            3.648376       14.474144       16.018557
  C            3.950231       15.883407       16.416417
  C            2.996783       15.867159       14.387641
  H            4.479177       13.792909       16.220338
  H            2.741923       14.088969       16.497214
  H            3.660005       16.100675       17.447752
  H            5.005430       16.140935       16.276891
  O           14.768670       10.408752       13.034015
  O           15.533156       12.404333       13.738842
  O           16.696930       10.500269       14.275304
  C           14.010320       11.406664       12.366753
  C           14.229305       12.616079       13.218098
  C           15.752434       11.053824       13.732585
  H           12.956930       11.121147       12.304506
  H           14.411164       11.528664       11.355037
  H           14.182651       13.546833       12.646600
  H           13.525843       12.671501       14.055536
  O           14.652710        6.253789        3.123767
  O           16.741593        7.014556        3.472141
  O           16.440866        4.957340        2.500005
  C           14.543562        7.618616        3.499925
  C           15.858155        7.888467        4.159057
  C           15.986589        5.981480        2.987663
  H           13.696045        7.772290        4.173071
  H           14.398261        8.217564        2.594785
  H           16.176161        8.928998        4.052966
  H           15.857767        7.617943        5.220212
  O           14.312579       19.366214       20.351158
  O           12.137551       19.714484       19.891234
  O           13.500269       21.512392       20.313312
  C           13.777543       18.131018       19.899286
  C           12.305776       18.317953       20.084724
  C           13.332104       20.307796       20.196228
  H           14.172575       17.296241       20.484199
  H           14.053415       17.997093       18.848055
  H           11.715117       17.748881       19.361973
  H           11.976133       18.065736       21.098112
  O           16.599142       17.747872       12.780451
  O           18.275689       19.010341       13.592194
  O           16.328002       20.022496       12.921611
  C           17.560389       16.861264       13.333705
  C           18.794264       17.703484       13.394098
  C           17.005767       19.018698       13.083052
  H           17.685190       15.976809       12.703476
  H           17.216091       16.551257       14.325917
  H           19.458811       17.417855       14.213782
  H           19.355657       17.691636       12.453922
  O            5.340148       12.155601        3.781801
  O            3.126816       12.463612        3.517504
  O            4.543588       14.258971        3.324980
  C            4.744358       10.868744        3.709739
  C            3.308962       11.148512        4.020865
  C            4.354138       13.068294        3.523567
  H            5.204512       10.183909        4.426876
  H            4.884626       10.477553        2.696614
  H            2.628198       10.445376        3.533785
  H            3.108060       11.157945        5.097333
  O           21.058234        7.475959        9.215251
  O           21.289052        9.634073        9.809250
  O           21.840283        7.988509       11.311211
  C           20.885521        8.254065        8.040141
  C           20.573994        9.611979        8.582774
  C           21.432824        8.334552       10.212452
  H           20.078847        7.853347        7.420684
  H           21.820709        8.235145        7.470760
  H           20.907117       10.415941        7.921137
  H           19.508494        9.741762        8.799797
  O            5.196834        4.412937       10.063602
  O            6.226090        5.422365       11.791391
  O            5.537149        3.243928       12.009100
  C            5.720855        5.640468        9.579114
  C            5.936501        6.427899       10.831663
  C            5.643383        4.266373       11.348523
  H            5.018068        6.122848        8.894697
  H            6.656120        5.433303        9.048556
  H            6.764340        7.136682       10.745655
  H            5.035556        6.962691       11.150296
  O            8.716634       11.717589       10.871529
  O            8.927321       12.331226        8.716854
  O            9.706136       10.277697        9.383256
  C            7.947750       12.898295       10.695710
  C            8.514393       13.480814        9.440714
  C            9.166312       11.344748        9.634319
  H            8.054090       13.565910       11.554784
  H            6.895643       12.614493       10.587744
  H            7.777619       14.056232        8.874016
  H            9.393147       14.106524        9.629160
  O           13.076523        4.589679        2.861690
  O           12.957512        4.115228        5.058118
  O           11.533217        5.678175        4.165816
  C           13.880923        3.441255        3.085792
  C           14.131999        3.492903        4.558790
  C           12.439746        4.868583        4.040095
  H           14.802665        3.488904        2.500003
  H           13.310635        2.554759        2.789103
  H           14.265847        2.500678        4.997723
  H           14.992671        4.119646        4.815047
  O           12.496290       10.816730        7.424510
  O           13.565260        9.219207        8.594462
  O           13.751465       11.410239        9.251980
  C           12.017855        9.564488        6.956378
  C           13.080217        8.613150        7.405569
  C           13.311469       10.559829        8.492871
  H           11.893820        9.574322        5.870309
  H           11.050026        9.364392        7.427968
  H           12.690272        7.612068        7.607719
  H           13.906699        8.540645        6.690794
  O           11.830703        6.801808       10.249938
  O            9.802117        7.752321       10.037971
  O           11.675315        9.077966       10.000304
  C           10.893858        5.751210       10.063590
  C            9.592821        6.399239       10.414004
  C           11.150654        7.977955       10.088322
  H           11.127118        4.900076       10.708716
  H           10.934058        5.431909        9.016900
  H            8.748209        5.968157        9.870047
  H            9.384511        6.365850       11.488585
  O            6.145153        4.927739       14.142432
  O            8.001452        4.020420       15.033774
  O            7.906280        4.393484       12.771168
  C            6.027907        5.036388       15.553321
  C            7.007780        4.021217       16.048000
  C            7.397372        4.442462       13.880967
  H            5.005286        4.827182       15.878140
  H            6.297756        6.056361       15.846516
  H            7.437777        4.288835       17.016799
  H            6.574864        3.017275       16.110587
  O           10.786386       12.489955       10.972536
  O           11.067737       11.897142       13.124972
  O           10.672692       10.272365       11.552820
  C           11.248996       13.639419       11.665994
  C           10.946614       13.311479       13.093036
  C           10.827799       11.445901       11.855796
  H           10.731020       14.538570       11.322110
  H           12.322591       13.748395       11.479861
  H           11.646762       13.779947       13.789756
  H            9.923060       13.578686       13.376177
  O           11.342804       16.547774       13.166879
  O           12.380146       17.110635       15.082780
  O           10.202177       16.390040       15.152188
  C           12.719845       16.714845       12.863555
  C           13.218207       17.527728       14.015201
  C           11.215637       16.658553       14.524622
  H           12.850315       17.221185       11.903542
  H           13.187256       15.725712       12.815898
  H           14.269328       17.332973       14.243901
  H           13.075750       18.602606       13.861659
  O            5.262824       10.824211        9.572939
  O            4.093708        8.946553        9.986621
  O            4.777085       10.256450       11.742977
  C            4.770991       10.354486        8.326496
  C            4.451927        8.922144        8.612896
  C            4.716956       10.029646       10.543817
  H            5.522647       10.469127        7.541068
  H            3.881969       10.936768        8.062459
  H            3.629003        8.543957        8.000638
  H            5.321425        8.267384        8.492492
  O           16.070219       14.585441       12.159290
  O           17.364287       13.623715       13.729014
  O           15.650652       15.006629       14.376027
  C           16.870701       13.613215       11.503421
  C           17.985985       13.390488       12.473971
  C           16.302334       14.455845       13.501392
  H           17.221968       13.983307       10.536638
  H           16.265902       12.713833       11.347029
  H           18.393320       12.377373       12.421388
  H           18.799446       14.113075       12.349948
  O           11.722634       15.462906       16.626285
  O           12.633511       14.030401       18.103376
  O           10.897178       13.326768       16.777604
  C           12.906196       16.070254       17.122741
  C           13.160733       15.317410       18.389180
  C           11.679406       14.194154       17.136491
  H           12.755687       17.139693       17.292077
  H           13.703548       15.930731       16.385251
  H           14.223822       15.258498       18.637089
  H           12.614327       15.734929       19.241442
  O            8.629507        9.766278       19.480354
  O            8.725257        8.991105       21.590687
  O            6.790658        8.731601       20.383372
  C            9.986722        9.838435       19.891352
  C            9.886704        9.780749       21.382022
  C            7.943032        9.127102       20.476404
  H           10.454421       10.760578       19.536474
  H           10.521907        8.979030       19.474064
  H           10.762541        9.318316       21.844789
  H            9.721038       10.766668       21.828958
  O           15.073539       11.685821       16.613332
  O           13.392857       13.135435       16.242534
  O           15.510270       13.938958       16.614741
  C           13.954538       10.926914       16.179679
  C           12.807904       11.854568       16.424872
  C           14.730145       13.005423       16.500902
  H           13.870534        9.995450       16.745668
  H           14.084220       10.693073       15.117780
  H           11.982998       11.697929       15.724813
  H           12.428252       11.789094       17.449963
  O           18.883087       18.251785       10.379578
  O           19.292700       17.533686        8.286704
  O           20.555380       16.721014       10.022454
  C           17.820022       18.717909        9.561788
  C           18.395937       18.629805        8.184838
  C           19.659179       17.436937        9.601364
  H           17.535074       19.737540        9.834157
  H           16.959828       18.054326        9.699090
  H           17.635434       18.443523        7.421934
  H           18.968609       19.522663        7.912654
  O           13.055161        4.687399        7.530713
  O           14.591235        3.103232        7.089742
  O           12.388113        2.501733        7.317937
  C           14.264157        5.356453        7.203826
  C           15.297174        4.294332        7.404336
  C           13.264743        3.352932        7.313496
  H           14.419756        6.222450        7.852568
  H           14.204878        5.691697        6.163045
  H           16.163031        4.420628        6.749028
  H           15.637379        4.232047        8.443381
  O            3.901560       14.360820        6.022682
  O            4.529318       14.096045        8.167299
  O            2.501280       15.063580        7.699795
  C            5.055963       13.534072        6.021644
  C            5.661706       13.806378        7.361180
  C            3.548456       14.553695        7.330362
  H            5.723900       13.795909        5.196824
  H            4.736836       12.492485        5.910372
  H            6.213596       12.949000        7.755401
  H            6.316359       14.684222        7.353966
  O           16.324133       19.439015       17.055097
  O           14.736355       17.886419       16.691817
  O           14.146580       20.103283       16.764631
  C           16.989772       18.207165       16.819239
  C           15.917667       17.195885       17.070901
  C           14.991716       19.223323       16.831375
  H           17.844720       18.089750       17.490286
  H           17.341196       18.195537       15.782178
  H           16.047969       16.287869       16.476244
  H           15.837264       16.925498       18.129040
  O            7.404821        7.563132        8.341414
  O            8.302689        9.566058        7.845749
  O            7.302517        9.255713        9.888043
  C            8.153358        7.401664        7.145679
  C            8.291605        8.804537        6.647417
  C            7.638990        8.833643        8.791830
  H            7.627242        6.754246        6.439224
  H            9.118404        6.950173        7.398603
  H            9.211101        8.959564        6.076819
  H            7.434685        9.120568        6.043227
  O           14.821198        5.032371       15.484943
  O           14.614089        2.812993       15.793215
  O           12.902362        3.975634       14.800301
  C           16.094097        4.544644       15.882448
  C           15.764676        3.229747       16.513286
  C           14.011074        3.943331       15.312896
  H           16.577962        5.235439       16.577936
  H           16.718471        4.435867       14.989445
  H           16.573584        2.501128       16.413927
  H           15.495861        3.328180       17.570302
  O           21.708066       13.370366       20.948170
  O           19.475412       13.593801       21.118165
  O           20.834912       15.294642       21.843782
  C           21.123889       12.303105       20.216151
  C           19.735027       12.242891       20.766482
  C           20.686380       14.187368       21.348886
  H           21.678144       11.373553       20.370300
  H           21.141805       12.561309       19.152131
  H           19.007678       11.882519       20.034235
  H           19.669554       11.629862       21.671547
  O            6.783832        9.871334       13.163019
  O            7.775967        8.048555       14.032910
  O            5.561399        7.948544       13.438510
  C            8.178433       10.134698       13.206453
  C            8.675366        9.134405       14.200386
  C            6.611037        8.566414       13.536162
  H            8.372460       11.165584       13.514111
  H            8.593556        9.972799       12.206158
  H            9.705016        8.823258       14.005204
  H            8.596778        9.494328       15.231654
