         704
  Built with Packmol                                             
  Zn           7.588184        7.588184        5.344736
  Zn          18.277656       18.277656       20.521104
  Zn          18.277656       18.277656        5.344736
  Zn           7.588184        7.588184       20.521104
  Zn          18.277656        7.588184       20.521104
  Zn           7.588184       18.277656        5.344736
  Zn           7.588184       18.277656       20.521104
  Zn          18.277656        7.588184        5.344736
  Zn           5.344736        7.588184        7.588184
  Zn          20.521104       18.277656       18.277656
  Zn           5.344736       18.277656       18.277656
  Zn          20.521104        7.588184        7.588184
  Zn          20.521104       18.277656        7.588184
  Zn           5.344736        7.588184       18.277656
  Zn          20.521104        7.588184       18.277656
  Zn           5.344736       18.277656        7.588184
  Zn           7.588184        5.344736        7.588184
  Zn          18.277656       20.521104       18.277656
  Zn          18.277656        5.344736       18.277656
  Zn           7.588184       20.521104        7.588184
  Zn           7.588184       20.521104       18.277656
  Zn          18.277656        5.344736        7.588184
  Zn          18.277656       20.521104        7.588184
  Zn           7.588184        5.344736       18.277656
  Zn           5.344736       20.521104       20.521104
  Zn          20.521104        5.344736        5.344736
  Zn           5.344736        5.344736        5.344736
  Zn          20.521104       20.521104       20.521104
  Zn          20.521104        5.344736       20.521104
  Zn           5.344736       20.521104        5.344736
  Zn          20.521104       20.521104        5.344736
  Zn           5.344736        5.344736       20.521104
  O            6.466460        6.466460        6.466460
  O           19.399380       19.399380       19.399380
  O           19.399380       19.399380        6.466460
  O            6.466460        6.466460       19.399380
  O           19.399380        6.466460       19.399380
  O            6.466460       19.399380        6.466460
  O            6.466460       19.399380       19.399380
  O           19.399380        6.466460        6.466460
  O            7.269387        9.475899        5.663533
  O           18.596453       16.389941       20.202307
  O           18.596453       16.389941        5.663533
  O            7.269387        9.475899       20.202307
  O           18.596453        9.475899       20.202307
  O            7.269387       16.389941        5.663533
  O            7.269387       16.389941       20.202307
  O           18.596453        9.475899        5.663533
  O            5.663533        7.269387        9.475899
  O           20.202307       18.596453       16.389941
  O            5.663533       18.596453       16.389941
  O           20.202307        7.269387        9.475899
  O           20.202307       18.596453        9.475899
  O            5.663533        7.269387       16.389941
  O           20.202307        7.269387       16.389941
  O            5.663533       18.596453        9.475899
  O            9.475899        5.663533        7.269387
  O           16.389941       20.202307       18.596453
  O           16.389941        5.663533       18.596453
  O            9.475899       20.202307        7.269387
  O            9.475899       20.202307       18.596453
  O           16.389941        5.663533        7.269387
  O           16.389941       20.202307        7.269387
  O            9.475899        5.663533       18.596453
  O            9.475899        7.269387       20.202307
  O           16.389941       18.596453        5.663533
  O           16.389941       18.596453       20.202307
  O            9.475899        7.269387        5.663533
  O            9.475899       18.596453        5.663533
  O           16.389941        7.269387       20.202307
  O           16.389941        7.269387        5.663533
  O            9.475899       18.596453       20.202307
  O            7.269387        5.663533       16.389941
  O           18.596453       20.202307        9.475899
  O           18.596453        5.663533        9.475899
  O            7.269387       20.202307       16.389941
  O           18.596453       20.202307       16.389941
  O            7.269387        5.663533        9.475899
  O            7.269387       20.202307        9.475899
  O           18.596453        5.663533       16.389941
  O            5.663533        9.475899       18.596453
  O           20.202307       16.389941        7.269387
  O            5.663533       16.389941        7.269387
  O           20.202307        9.475899       18.596453
  O           20.202307        9.475899        7.269387
  O            5.663533       16.389941       18.596453
  O           20.202307       16.389941       18.596453
  O            5.663533        9.475899        7.269387
  O            7.269387       22.408819       18.596453
  O           18.596453        3.457021        7.269387
  O           18.596453        3.457021       18.596453
  O            7.269387       22.408819        7.269387
  O           18.596453       22.408819        7.269387
  O            7.269387        3.457021       18.596453
  O            7.269387        3.457021        7.269387
  O           18.596453       22.408819       18.596453
  O            5.663533       20.202307       22.408819
  O           20.202307        5.663533        3.457021
  O            5.663533        5.663533        3.457021
  O           20.202307       20.202307       22.408819
  O           20.202307        5.663533       22.408819
  O            5.663533       20.202307        3.457021
  O           20.202307       20.202307        3.457021
  O            5.663533        5.663533       22.408819
  O            7.269387       18.596453        3.457021
  O           18.596453        7.269387       22.408819
  O           18.596453       18.596453       22.408819
  O            7.269387        7.269387        3.457021
  O           18.596453        7.269387        3.457021
  O            7.269387       18.596453       22.408819
  O            7.269387        7.269387       22.408819
  O           18.596453       18.596453        3.457021
  O            5.663533       22.408819        5.663533
  O           20.202307        3.457021       20.202307
  O            5.663533        3.457021       20.202307
  O           20.202307       22.408819        5.663533
  O           20.202307       22.408819       20.202307
  O            5.663533        3.457021        5.663533
  O           20.202307        3.457021        5.663533
  O            5.663533       22.408819       20.202307
  O           22.408819        5.663533       20.202307
  O            3.457021       20.202307        5.663533
  O            3.457021        5.663533        5.663533
  O           22.408819       20.202307       20.202307
  O           22.408819       20.202307        5.663533
  O            3.457021        5.663533       20.202307
  O            3.457021       20.202307       20.202307
  O           22.408819        5.663533        5.663533
  O           22.408819        7.269387        7.269387
  O            3.457021       18.596453       18.596453
  O            3.457021       18.596453        7.269387
  O           22.408819        7.269387       18.596453
  O           22.408819       18.596453       18.596453
  O            3.457021        7.269387        7.269387
  O            3.457021        7.269387       18.596453
  O           22.408819       18.596453        7.269387
  C            6.466460       10.051905        6.466460
  C           19.399380       15.813935       19.399380
  C           19.399380       15.813935        6.466460
  C            6.466460       10.051905       19.399380
  C           19.399380       10.051905       19.399380
  C            6.466460       15.813935        6.466460
  C            6.466460       15.813935       19.399380
  C           19.399380       10.051905        6.466460
  C            6.466460        6.466460       10.051905
  C           19.399380       19.399380       15.813935
  C            6.466460       19.399380       15.813935
  C           19.399380        6.466460       10.051905
  C           19.399380       19.399380       10.051905
  C            6.466460        6.466460       15.813935
  C           19.399380        6.466460       15.813935
  C            6.466460       19.399380       10.051905
  C           10.051905        6.466460        6.466460
  C           15.813935       19.399380       19.399380
  C           15.813935        6.466460       19.399380
  C           10.051905       19.399380        6.466460
  C           10.051905       19.399380       19.399380
  C           15.813935        6.466460        6.466460
  C           15.813935       19.399380        6.466460
  C           10.051905        6.466460       19.399380
  C            6.466460       22.984825       19.399380
  C           19.399380        2.881015        6.466460
  C           19.399380        2.881015       19.399380
  C            6.466460       22.984825        6.466460
  C           19.399380       22.984825        6.466460
  C            6.466460        2.881015       19.399380
  C            6.466460        2.881015        6.466460
  C           19.399380       22.984825       19.399380
  C            6.466460       19.399380       22.984825
  C           19.399380        6.466460        2.881015
  C            6.466460        6.466460        2.881015
  C           19.399380       19.399380       22.984825
  C           19.399380        6.466460       22.984825
  C            6.466460       19.399380        2.881015
  C           19.399380       19.399380        2.881015
  C            6.466460        6.466460       22.984825
  C           22.984825        6.466460       19.399380
  C            2.881015       19.399380        6.466460
  C            2.881015        6.466460        6.466460
  C           22.984825       19.399380       19.399380
  C           22.984825       19.399380        6.466460
  C            2.881015        6.466460       19.399380
  C            2.881015       19.399380       19.399380
  C           22.984825        6.466460        6.466460
  C            6.466460       11.541131        6.466460
  C           19.399380       14.324709       19.399380
  C           19.399380       14.324709        6.466460
  C            6.466460       11.541131       19.399380
  C           19.399380       11.541131       19.399380
  C            6.466460       14.324709        6.466460
  C            6.466460       14.324709       19.399380
  C           19.399380       11.541131        6.466460
  C            6.466460        6.466460       11.541131
  C           19.399380       19.399380       14.324709
  C            6.466460       19.399380       14.324709
  C           19.399380        6.466460       11.541131
  C           19.399380       19.399380       11.541131
  C            6.466460        6.466460       14.324709
  C           19.399380        6.466460       14.324709
  C            6.466460       19.399380       11.541131
  C           11.541131        6.466460        6.466460
  C           14.324709       19.399380       19.399380
  C           14.324709        6.466460       19.399380
  C           11.541131       19.399380        6.466460
  C           11.541131       19.399380       19.399380
  C           14.324709        6.466460        6.466460
  C           14.324709       19.399380        6.466460
  C           11.541131        6.466460       19.399380
  C            6.466460       24.474051       19.399380
  C           19.399380        1.391789        6.466460
  C           19.399380        1.391789       19.399380
  C            6.466460       24.474051        6.466460
  C           19.399380       24.474051        6.466460
  C            6.466460        1.391789       19.399380
  C            6.466460        1.391789        6.466460
  C           19.399380       24.474051       19.399380
  C            6.466460       19.399380       24.474051
  C           19.399380        6.466460        1.391789
  C            6.466460        6.466460        1.391789
  C           19.399380       19.399380       24.474051
  C           19.399380        6.466460       24.474051
  C            6.466460       19.399380        1.391789
  C           19.399380       19.399380        1.391789
  C            6.466460        6.466460       24.474051
  C           24.474051        6.466460       19.399380
  C            1.391789       19.399380        6.466460
  C            1.391789        6.466460        6.466460
  C           24.474051       19.399380       19.399380
  C           24.474051       19.399380        6.466460
  C            1.391789        6.466460       19.399380
  C            1.391789       19.399380       19.399380
  C           24.474051        6.466460        6.466460
  C            7.324352       12.239172        5.608568
  C           18.541488       13.626668       20.257272
  C           18.541488       13.626668        5.608568
  C            7.324352       12.239172       20.257272
  C           18.541488       12.239172       20.257272
  C            7.324352       13.626668        5.608568
  C            7.324352       13.626668       20.257272
  C           18.541488       12.239172        5.608568
  C            5.608568        7.324352       12.239172
  C           20.257272       18.541488       13.626668
  C            5.608568       18.541488       13.626668
  C           20.257272        7.324352       12.239172
  C           20.257272       18.541488       12.239172
  C            5.608568        7.324352       13.626668
  C           20.257272        7.324352       13.626668
  C            5.608568       18.541488       12.239172
  C           12.239172        5.608568        7.324352
  C           13.626668       20.257272       18.541488
  C           13.626668        5.608568       18.541488
  C           12.239172       20.257272        7.324352
  C           12.239172       20.257272       18.541488
  C           13.626668        5.608568        7.324352
  C           13.626668       20.257272        7.324352
  C           12.239172        5.608568       18.541488
  C           12.239172        7.324352       20.257272
  C           13.626668       18.541488        5.608568
  C           13.626668       18.541488       20.257272
  C           12.239172        7.324352        5.608568
  C           12.239172       18.541488        5.608568
  C           13.626668        7.324352       20.257272
  C           13.626668        7.324352        5.608568
  C           12.239172       18.541488       20.257272
  C            7.324352        5.608568       13.626668
  C           18.541488       20.257272       12.239172
  C           18.541488        5.608568       12.239172
  C            7.324352       20.257272       13.626668
  C           18.541488       20.257272       13.626668
  C            7.324352        5.608568       12.239172
  C            7.324352       20.257272       12.239172
  C           18.541488        5.608568       13.626668
  C            5.608568       12.239172       18.541488
  C           20.257272       13.626668        7.324352
  C            5.608568       13.626668        7.324352
  C           20.257272       12.239172       18.541488
  C           20.257272       12.239172        7.324352
  C            5.608568       13.626668       18.541488
  C           20.257272       13.626668       18.541488
  C            5.608568       12.239172        7.324352
  C            7.324352       25.172092       18.541488
  C           18.541488        0.693748        7.324352
  C           18.541488        0.693748       18.541488
  C            7.324352       25.172092        7.324352
  C           18.541488       25.172092        7.324352
  C            7.324352        0.693748       18.541488
  C            7.324352        0.693748        7.324352
  C           18.541488       25.172092       18.541488
  C            5.608568       20.257272       25.172092
  C           20.257272        5.608568        0.693748
  C            5.608568        5.608568        0.693748
  C           20.257272       20.257272       25.172092
  C           20.257272        5.608568       25.172092
  C            5.608568       20.257272        0.693748
  C           20.257272       20.257272        0.693748
  C            5.608568        5.608568       25.172092
  C            7.324352       18.541488        0.693748
  C           18.541488        7.324352       25.172092
  C           18.541488       18.541488       25.172092
  C            7.324352        7.324352        0.693748
  C           18.541488        7.324352        0.693748
  C            7.324352       18.541488       25.172092
  C            7.324352        7.324352       25.172092
  C           18.541488       18.541488        0.693748
  C            5.608568       25.172092        5.608568
  C           20.257272        0.693748       20.257272
  C            5.608568        0.693748       20.257272
  C           20.257272       25.172092        5.608568
  C           20.257272       25.172092       20.257272
  C            5.608568        0.693748        5.608568
  C           20.257272        0.693748        5.608568
  C            5.608568       25.172092       20.257272
  C           25.172092        5.608568       20.257272
  C            0.693748       20.257272        5.608568
  C            0.693748        5.608568        5.608568
  C           25.172092       20.257272       20.257272
  C           25.172092       20.257272        5.608568
  C            0.693748        5.608568       20.257272
  C            0.693748       20.257272       20.257272
  C           25.172092        5.608568        5.608568
  C           25.172092        7.324352        7.324352
  C            0.693748       18.541488       18.541488
  C            0.693748       18.541488        7.324352
  C           25.172092        7.324352       18.541488
  C           25.172092       18.541488       18.541488
  C            0.693748        7.324352        7.324352
  C            0.693748        7.324352       18.541488
  C           25.172092       18.541488        7.324352
  H            7.984526       11.670408        4.948394
  H           17.881314       14.195432       20.917446
  H           17.881314       14.195432        4.948394
  H            7.984526       11.670408       20.917446
  H           17.881314       11.670408       20.917446
  H            7.984526       14.195432        4.948394
  H            7.984526       14.195432       20.917446
  H           17.881314       11.670408        4.948394
  H            4.948394        7.984526       11.670408
  H           20.917446       17.881314       14.195432
  H            4.948394       17.881314       14.195432
  H           20.917446        7.984526       11.670408
  H           20.917446       17.881314       11.670408
  H            4.948394        7.984526       14.195432
  H           20.917446        7.984526       14.195432
  H            4.948394       17.881314       11.670408
  H           11.670408        4.948394        7.984526
  H           14.195432       20.917446       17.881314
  H           14.195432        4.948394       17.881314
  H           11.670408       20.917446        7.984526
  H           11.670408       20.917446       17.881314
  H           14.195432        4.948394        7.984526
  H           14.195432       20.917446        7.984526
  H           11.670408        4.948394       17.881314
  H           11.670408        7.984526       20.917446
  H           14.195432       17.881314        4.948394
  H           14.195432       17.881314       20.917446
  H           11.670408        7.984526        4.948394
  H           11.670408       17.881314        4.948394
  H           14.195432        7.984526       20.917446
  H           14.195432        7.984526        4.948394
  H           11.670408       17.881314       20.917446
  H            7.984526        4.948394       14.195432
  H           17.881314       20.917446       11.670408
  H           17.881314        4.948394       11.670408
  H            7.984526       20.917446       14.195432
  H           17.881314       20.917446       14.195432
  H            7.984526        4.948394       11.670408
  H            7.984526       20.917446       11.670408
  H           17.881314        4.948394       14.195432
  H            4.948394       11.670408       17.881314
  H           20.917446       14.195432        7.984526
  H            4.948394       14.195432        7.984526
  H           20.917446       11.670408       17.881314
  H           20.917446       11.670408        7.984526
  H            4.948394       14.195432       17.881314
  H           20.917446       14.195432       17.881314
  H            4.948394       11.670408        7.984526
  H            7.984526       24.603328       17.881314
  H           17.881314        1.262512        7.984526
  H           17.881314        1.262512       17.881314
  H            7.984526       24.603328        7.984526
  H           17.881314       24.603328        7.984526
  H            7.984526        1.262512       17.881314
  H            7.984526        1.262512        7.984526
  H           17.881314       24.603328       17.881314
  H            4.948394       20.917446       24.603328
  H           20.917446        4.948394        1.262512
  H            4.948394        4.948394        1.262512
  H           20.917446       20.917446       24.603328
  H           20.917446        4.948394       24.603328
  H            4.948394       20.917446        1.262512
  H           20.917446       20.917446        1.262512
  H            4.948394        4.948394       24.603328
  H            7.984526       17.881314        1.262512
  H           17.881314        7.984526       24.603328
  H           17.881314       17.881314       24.603328
  H            7.984526        7.984526        1.262512
  H           17.881314        7.984526        1.262512
  H            7.984526       17.881314       24.603328
  H            7.984526        7.984526       24.603328
  H           17.881314       17.881314        1.262512
  H            4.948394       24.603328        4.948394
  H           20.917446        1.262512       20.917446
  H            4.948394        1.262512       20.917446
  H           20.917446       24.603328        4.948394
  H           20.917446       24.603328       20.917446
  H            4.948394        1.262512        4.948394
  H           20.917446        1.262512        4.948394
  H            4.948394       24.603328       20.917446
  H           24.603328        4.948394       20.917446
  H            1.262512       20.917446        4.948394
  H            1.262512        4.948394        4.948394
  H           24.603328       20.917446       20.917446
  H           24.603328       20.917446        4.948394
  H            1.262512        4.948394       20.917446
  H            1.262512       20.917446       20.917446
  H           24.603328        4.948394        4.948394
  H           24.603328        7.984526        7.984526
  H            1.262512       17.881314       17.881314
  H            1.262512       17.881314        7.984526
  H           24.603328        7.984526       17.881314
  H           24.603328       17.881314       17.881314
  H            1.262512        7.984526        7.984526
  H            1.262512        7.984526       17.881314
  H           24.603328       17.881314        7.984526
  O            2.650099       19.510457       13.940868
  O            3.406308       19.404314       16.057575
  O            2.500090       17.530149       15.091189
  C            3.364092       20.712089       14.190774
  C            3.398967       20.774199       15.684212
  C            2.822430       18.707431       15.035108
  H            2.853543       21.570230       13.745847
  H            4.363189       20.619814       13.752119
  H            4.286467       21.287781       16.063242
  H            2.503479       21.243786       16.104714
  O            7.280609        9.577480       14.995233
  O            8.744850       10.789451       13.790786
  O            6.924840        9.860548       12.745641
  C            8.149066       10.220429       15.916405
  C            9.327166       10.579140       15.068563
  C            7.589500       10.057570       13.751846
  H            8.411484        9.550602       16.739506
  H            7.638194       11.101911       16.317814
  H            9.838600       11.479743       15.418474
  H           10.050885        9.761056       14.989808
  O           10.632719       10.373222       10.964635
  O           11.316902       11.861485        9.421738
  O           12.424326       11.730797       11.427768
  C            9.943995       10.073219        9.759720
  C           10.072384       11.341375        8.978231
  C           11.538753       11.356279       10.673754
  H            8.903074        9.806173        9.960208
  H           10.445510        9.229554        9.274086
  H           10.082054       11.170912        7.898445
  H            9.287170       12.064710        9.222072
  O           15.831012       13.937327        7.184790
  O           15.845403       12.711084        9.071503
  O           15.482580       11.672445        7.057250
  C           16.311575       14.775833        8.225043
  C           15.841467       14.076706        9.460215
  C           15.699537       12.681425        7.711414
  H           15.904431       15.786148        8.132715
  H           17.403732       14.819827        8.158814
  H           16.502876       14.242160       10.314763
  H           14.819187       14.356145        9.736056
  O           14.356988       10.946681        9.798366
  O           13.464656       10.543145        7.772418
  O           13.442638       12.681457        8.605941
  C           14.720532        9.622418        9.437362
  C           13.727770        9.283293        8.372070
  C           13.728373       11.498513        8.715669
  H           14.659456        8.951515       10.298282
  H           15.749273        9.634911        9.062310
  H           14.123155        8.575761        7.638478
  H           12.790947        8.891659        8.782215
  O           12.615515       13.818337        6.222010
  O           10.406506       13.811554        5.793292
  O           11.538604       11.817777        5.897378
  C           12.140000       15.135723        6.455544
  C           10.844836       15.159437        5.708939
  C           11.521798       13.037719        5.964467
  H           12.851530       15.879463        6.087300
  H           12.004187       15.269657        7.533850
  H           10.113505       15.837433        6.156784
  H           10.975265       15.416556        4.652477
  O           17.149123       14.274090       15.934256
  O           15.668362       15.902744       16.401588
  O           14.902839       13.834606       15.765664
  C           17.874851       15.342811       16.523591
  C           16.952375       16.506727       16.351055
  C           15.822689       14.600550       16.011113
  H           18.834416       15.488354       16.020523
  H           18.052872       15.102217       17.576944
  H           17.064892       17.253422       17.141545
  H           17.069266       16.992712       15.376689
  O           17.084419       14.213145       12.682682
  O           19.105038       13.253618       12.927572
  O           18.954251       15.539645       12.789855
  C           16.863325       12.842738       12.981446
  C           18.178806       12.213540       12.651221
  C           18.429259       14.436313       12.798911
  H           16.042105       12.439467       12.383117
  H           16.612252       12.755199       14.043721
  H           18.387970       11.331001       13.261518
  H           18.261492       11.947434       11.592172
  O           11.886696       19.092549       10.628177
  O           12.733922       17.988975       12.396764
  O           11.568860       19.936643       12.738591
  C           12.331286       17.828407       10.158661
  C           13.277107       17.389144       11.230063
  C           12.021991       19.084141       11.989623
  H           12.815014       17.921594        9.182777
  H           11.463470       17.166584       10.069144
  H           13.320259       16.301667       11.333110
  H           14.289874       17.777544       11.079460
  O           13.041897       14.155554        3.821621
  O           13.559829       12.107787        3.045759
  O           11.516046       13.019942        2.537284
  C           14.424018       13.949877        4.073807
  C           14.560483       12.463444        3.988223
  C           12.606156       13.088073        3.085059
  H           14.705368       14.342386        5.054525
  H           14.999055       14.468391        3.299466
  H           15.550177       12.150981        3.644768
  H           14.335013       11.966968        4.937911
  O           16.246135        5.026672        9.583727
  O           14.435398        5.845862       10.639059
  O           15.505324        7.137934        9.072716
  C           15.655973        3.950861       10.298220
  C           14.804764        4.649869       11.309289
  C           15.404966        6.098613        9.707366
  H           16.421339        3.319412       10.757038
  H           15.066159        3.350829        9.597358
  H           13.921640        4.069448       11.589096
  H           15.362266        4.916580       12.213331
  O           11.604240        6.973559       11.136340
  O           12.158295        5.341187       12.582698
  O           13.322930        7.318565       12.617703
  C           10.586891        5.985807       11.062120
  C           11.250291        4.780011       11.646403
  C           12.442501        6.609173       12.154403
  H           10.267060        5.830558       10.028373
  H            9.731754        6.322889       11.657305
  H           10.543059        4.109049       12.141097
  H           11.822960        4.215695       10.902878
  O            9.653833       16.572447        8.417651
  O            8.695637       15.630080       10.222470
  O           10.402932       14.531237        9.152277
  C            8.818762       17.556474        9.009685
  C            7.892953       16.742330        9.855543
  C            9.652532       15.490126        9.254604
  H            8.292057       18.133843        8.245320
  H            9.444433       18.230947        9.603613
  H            7.546055       17.283204       10.739967
  H            7.026978       16.375425        9.294561
  O           13.737667        9.455655       14.827502
  O           12.503834       10.823257       16.120131
  O           12.594520        8.584333       16.616740
  C           14.053509       10.787118       14.448544
  C           12.891932       11.567547       14.974945
  C           12.915737        9.534203       15.918451
  H           14.159337       10.870423       13.363699
  H           14.998010       11.069003       14.925606
  H           13.161642       12.591494       15.246753
  H           12.050704       11.590172       14.274191
  O            4.443082       10.260186        2.559819
  O            3.075216       10.223198        4.346195
  O            2.736238        8.727906        2.638325
  C            5.019826       11.103527        3.545874
  C            3.864893       11.398792        4.448303
  C            3.360892        9.652748        3.135834
  H            5.440442       12.004845        3.092295
  H            5.816702       10.549727        4.053242
  H            4.173201       11.574425        5.482318
  H            3.268502       12.248848        4.100516
  O            9.816991       14.988498       14.141352
  O           10.510562       15.998336       12.253827
  O            9.399251       17.225477       13.843398
  C           10.669027       14.074633       13.466782
  C           10.680623       14.601062       12.067436
  C            9.866006       16.167427       13.448797
  H           10.277950       13.055750       13.529721
  H           11.657806       14.110893       13.935962
  H           11.616921       14.387100       11.545273
  H            9.841739       14.225671       11.471962
  O            5.142525       16.070306        4.457014
  O            3.177723       17.058905        3.981839
  O            4.725702       18.183563        5.249329
  C            4.497021       15.269220        3.478369
  C            3.069256       15.700143        3.584300
  C            4.380119       17.194553        4.620463
  H            4.632425       14.205717        3.692033
  H            4.932113       15.498626        2.500004
  H            2.531702       15.611507        2.636530
  H            2.523573       15.153794        4.360808
  O           13.567111       12.186163       21.070854
  O           11.802306       13.579291       20.980176
  O           13.925549       14.450645       20.965957
  C           12.414369       11.387189       20.849530
  C           11.299094       12.285631       21.278941
  C           13.167603       13.492932       21.002610
  H           12.459926       10.464397       21.433831
  H           12.364409       11.137443       19.784514
  H           10.370231       12.092122       20.735934
  H           11.106139       12.228308       22.355377
  O           15.425539       11.277670       17.117746
  O           17.150300       10.623111       18.406280
  O           17.560857       11.879720       16.530113
  C           14.875601       10.740449       18.311531
  C           16.001196        9.921786       18.857658
  C           16.783337       11.311829       17.282445
  H           13.985681       10.142620       18.097828
  H           14.602489       11.570150       18.971937
  H           15.984765        9.858963       19.948929
  H           16.024981        8.910337       18.438566
  O           14.393696       15.540721       14.169032
  O           14.722400       17.705096       13.648457
  O           15.942145       16.089804       12.566480
  C           13.358440       16.283578       14.795585
  C           13.909012       17.673556       14.811833
  C           15.096894       16.415459       13.386565
  H           13.154022       15.900313       15.798754
  H           12.452756       16.199086       14.185893
  H           13.127289       18.436221       14.763464
  H           14.543493       17.862357       15.684198
  O           22.618817        3.906070       15.947867
  O           21.168309        2.500032       14.956580
  O           23.365995        2.500071       14.294913
  C           21.417302        3.943261       16.703604
  C           20.405185        3.399616       15.746787
  C           22.466534        2.929660       15.001641
  H           21.188111        4.962982       17.024020
  H           21.542699        3.307576       17.586388
  H           19.586406        2.879611       16.251053
  H           19.991563        4.172822       15.090813
  O            8.956899        7.588138       14.887474
  O           10.829304        7.382850       13.656408
  O            8.984383        8.393470       12.738510
  C            9.989082        7.160899       15.763958
  C           11.010507        6.600138       14.827120
  C            9.539369        7.838610       13.675079
  H            9.616673        6.417870       16.474061
  H           10.359485        8.031925       16.314634
  H           12.030147        6.697760       15.209080
  H           10.818064        5.551543       14.576825
  O           13.855797       21.482989        3.887658
  O           11.957567       21.344411        5.088109
  O           12.407835       19.743667        3.506179
  C           13.952054       22.437731        4.934253
  C           12.528061       22.617347        5.353074
  C           12.712412       20.763920        4.105644
  H           14.405632       23.365839        4.576607
  H           14.573182       22.016923        5.731906
  H           12.430189       22.877545        6.410337
  H           12.004785       23.365036        4.747783
  O            9.377089       15.944460       18.828163
  O           11.438136       15.089150       19.118156
  O           10.209147       15.710403       20.954253
  C            9.797547       15.431376       17.572727
  C           11.281724       15.341989       17.729759
  C           10.330485       15.592399       19.744132
  H            9.500018       16.097332       16.758475
  H            9.332364       14.451119       17.424985
  H           11.720062       14.537211       17.133705
  H           11.785614       16.284138       17.489585
  O            3.657931       16.515226       12.925755
  O            3.362390       14.461549       12.054761
  O            2.665373       16.298118       10.867830
  C            4.385939       15.607130       13.739098
  C            3.763661       14.289136       13.405795
  C            3.181147       15.803493       11.858973
  H            4.286789       15.863606       14.797123
  H            5.442066       15.655589       13.453834
  H            4.465223       13.456320       13.502323
  H            2.873181       14.082197       14.008666
  O            6.002123       12.454166       15.639944
  O            6.808775       12.995175       13.610119
  O            5.450524       11.157979       13.828039
  C            6.593041       13.740251       15.753790
  C            7.490630       13.801136       14.559614
  C            6.034040       12.114802       14.314907
  H            7.138986       13.837909       16.695827
  H            5.797636       14.492056       15.718468
  H            7.623593       14.819441       14.184827
  H            8.472800       13.356230       14.751014
  O            6.455465       13.668456       10.768027
  O            4.357136       13.056488       10.233169
  O            4.892225       15.286840       10.315839
  C            6.470448       12.264624       10.555446
  C            5.028776       11.892049       10.690354
  C            5.206164       14.111388       10.428959
  H            7.104944       11.764238       11.291690
  H            6.861029       12.069802        9.551145
  H            4.760586       11.022450       10.084581
  H            4.738980       11.710071       11.730611
  O           12.954382        4.378906        4.774061
  O           12.682950        2.508622        3.552615
  O           14.792885        3.125002        4.212820
  C           11.560538        4.113659        4.719255
  C           11.441818        3.198217        3.543117
  C           13.587006        3.319854        4.182363
  H           10.991119        5.038099        4.591981
  H           11.261709        3.632292        5.656333
  H           10.605664        2.500160        3.636125
  H           11.354056        3.741926        2.596591
