         672
  Built with Packmol                                             
  O           21.808251        2.536749        0.000000
  O           21.808251        3.549501        6.086250
  O           20.795499        3.549501       12.172500
  O           20.795499        2.536749       18.258750
  O            0.000000       21.808251        2.536749
  O            6.086250       21.808251        3.549501
  O           12.172500       20.795499        3.549501
  O           18.258750       20.795499        2.536749
  O            2.536749        6.086250        8.622999
  O            2.536749       12.172500        9.635751
  O            3.549501       18.258750        9.635751
  O            3.549501        0.000000        8.622999
  O            2.536749       21.808251        0.000000
  O            2.536749       20.795499       18.258750
  O            3.549501       20.795499       12.172500
  O            3.549501       21.808251        6.086250
  O            0.000000        2.536749       21.808251
  O           18.258750        2.536749       20.795499
  O           12.172500        3.549501       20.795499
  O            6.086250        3.549501       21.808251
  O           21.808251       18.258750       15.722001
  O           21.808251       12.172500       14.709249
  O           20.795499        6.086250       14.709249
  O           20.795499        0.000000       15.722001
  O           21.808251       14.709249       12.172500
  O           21.808251       15.722001       18.258750
  O           20.795499       15.722001        0.000000
  O           20.795499       14.709249        6.086250
  O            0.000000        9.635751       14.709249
  O            6.086250        9.635751       15.722001
  O           12.172500        8.622999       15.722001
  O           18.258750        8.622999       14.709249
  O            2.536749       18.258750       20.795499
  O            2.536749        0.000000       21.808251
  O            3.549501        6.086250       21.808251
  O            3.549501       12.172500       20.795499
  O            2.536749        9.635751       12.172500
  O            2.536749        8.622999        6.086250
  O            3.549501        8.622999        0.000000
  O            3.549501        9.635751       18.258750
  O            0.000000       14.709249        9.635751
  O           18.258750       14.709249        8.622999
  O           12.172500       15.722001        8.622999
  O            6.086250       15.722001        9.635751
  O           21.808251        6.086250        3.549501
  O           21.808251        0.000000        2.536749
  O           20.795499       18.258750        2.536749
  O           20.795499       12.172500        3.549501
  O            9.635751        2.536749       12.172500
  O            9.635751        3.549501       18.258750
  O            8.622999        3.549501        0.000000
  O            8.622999        2.536749        6.086250
  O           12.172500       21.808251       14.709249
  O           18.258750       21.808251       15.722001
  O            0.000000       20.795499       15.722001
  O            6.086250       20.795499       14.709249
  O           14.709249        6.086250       20.795499
  O           14.709249       12.172500       21.808251
  O           15.722001       18.258750       21.808251
  O           15.722001        0.000000       20.795499
  O           14.709249       21.808251       12.172500
  O           14.709249       20.795499        6.086250
  O           15.722001       20.795499        0.000000
  O           15.722001       21.808251       18.258750
  O           12.172500        2.536749        9.635751
  O            6.086250        2.536749        8.622999
  O            0.000000        3.549501        8.622999
  O           18.258750        3.549501        9.635751
  O            9.635751       18.258750        3.549501
  O            9.635751       12.172500        2.536749
  O            8.622999        6.086250        2.536749
  O            8.622999        0.000000        3.549501
  O            9.635751       14.709249        0.000000
  O            9.635751       15.722001        6.086250
  O            8.622999       15.722001       12.172500
  O            8.622999       14.709249       18.258750
  O           12.172500        9.635751        2.536749
  O           18.258750        9.635751        3.549501
  O            0.000000        8.622999        3.549501
  O            6.086250        8.622999        2.536749
  O           14.709249       18.258750        8.622999
  O           14.709249        0.000000        9.635751
  O           15.722001        6.086250        9.635751
  O           15.722001       12.172500        8.622999
  O           14.709249        9.635751        0.000000
  O           14.709249        8.622999       18.258750
  O           15.722001        8.622999       12.172500
  O           15.722001        9.635751        6.086250
  O           12.172500       14.709249       21.808251
  O            6.086250       14.709249       20.795499
  O            0.000000       15.722001       20.795499
  O           18.258750       15.722001       21.808251
  O            9.635751        6.086250       15.722001
  O            9.635751        0.000000       14.709249
  O            8.622999       18.258750       14.709249
  O            8.622999       12.172500       15.722001
  O           23.539180        1.855089        1.855089
  O           22.489911        5.280430        7.941339
  O           19.064570        4.231161       14.027589
  O           20.113839        0.805820       20.113839
  O           23.539180        4.231161        4.231161
  O           22.489911        0.805820       22.489911
  O           19.064570        1.855089       16.403661
  O           20.113839        5.280430       10.317411
  O            1.855089       23.539180        1.855089
  O            7.941339       22.489911        5.280430
  O           14.027589       19.064570        4.231161
  O           20.113839       20.113839        0.805820
  O            4.231161       23.539180        4.231161
  O           22.489911       22.489911        0.805820
  O           16.403661       19.064570        1.855089
  O           10.317411       20.113839        5.280430
  O            0.805820        7.941339        7.941339
  O            1.855089       14.027589       11.366680
  O            5.280430       20.113839       10.317411
  O            4.231161        1.855089        6.892069
  O            0.805820       10.317411       10.317411
  O            1.855089        4.231161        6.892069
  O            5.280430       22.489911        7.941339
  O            4.231161       16.403661       11.366680
  O            0.805820       22.489911       22.489911
  O            1.855089       19.064570       16.403661
  O            0.805820       20.113839       20.113839
  O            4.231161       19.064570       14.027589
  O           16.403661        1.855089       19.064570
  O           10.317411        5.280430       20.113839
  O            4.231161        4.231161       23.539180
  O            1.855089        1.855089       23.539180
  O            7.941339        5.280430       22.489911
  O           14.027589        4.231161       19.064570
  O           23.539180       16.403661       16.403661
  O           22.489911       10.317411       12.978319
  O           20.113839       22.489911       17.452930
  O           23.539180       14.027589       14.027589
  O           22.489911       20.113839       17.452930
  O           20.113839        7.941339       12.978319
  O           22.489911       17.452930       20.113839
  O           19.064570       16.403661        1.855089
  O           20.113839       12.978319        7.941339
  O           22.489911       12.978319       10.317411
  O           19.064570       14.027589        4.231161
  O           20.113839       17.452930       22.489911
  O            1.855089       11.366680       14.027589
  O            7.941339       10.317411       17.452930
  O           14.027589        6.892069       16.403661
  O            4.231161       11.366680       16.403661
  O           16.403661        6.892069       14.027589
  O           10.317411        7.941339       17.452930
  O            5.280430        7.941339       22.489911
  O            4.231161       14.027589       19.064570
  O            1.855089       16.403661       19.064570
  O            5.280430       10.317411       20.113839
  O            1.855089        6.892069        4.231161
  O            4.231161        6.892069        1.855089
  O           16.403661       14.027589        6.892069
  O           10.317411       17.452930        7.941339
  O            7.941339       17.452930       10.317411
  O           14.027589       16.403661        6.892069
  O           20.113839       10.317411        5.280430
  O           22.489911        7.941339        5.280430
  O           11.366680        1.855089       14.027589
  O            6.892069        4.231161        1.855089
  O            7.941339        0.805820        7.941339
  O           11.366680        4.231161       16.403661
  O           10.317411        0.805820       10.317411
  O            6.892069        1.855089        4.231161
  O           14.027589       23.539180       14.027589
  O            7.941339       20.113839       12.978319
  O           16.403661       23.539180       16.403661
  O           10.317411       22.489911       12.978319
  O           12.978319        7.941339       20.113839
  O           14.027589       14.027589       23.539180
  O           17.452930       20.113839       22.489911
  O           12.978319       10.317411       22.489911
  O           17.452930       22.489911       20.113839
  O           16.403661       16.403661       23.539180
  O           12.978319       22.489911       10.317411
  O           12.978319       20.113839        7.941339
  O           16.403661        4.231161       11.366680
  O           14.027589        1.855089       11.366680
  O           11.366680       16.403661        4.231161
  O           10.317411       10.317411        0.805820
  O           11.366680       14.027589        1.855089
  O            7.941339        7.941339        0.805820
  O            6.892069       16.403661       14.027589
  O            7.941339       12.978319       20.113839
  O           10.317411       12.978319       22.489911
  O            6.892069       14.027589       16.403661
  O           14.027589       11.366680        1.855089
  O           16.403661       11.366680        4.231161
  O           17.452930        7.941339       10.317411
  O           17.452930       10.317411        7.941339
  O           24.262227        3.478900       24.262227
  O           20.866099        6.003477        6.003477
  O           18.341523        2.607349       12.089727
  O           21.737651        0.082773       18.175977
  O           24.262227        2.607349        6.169023
  O           20.866099        0.082773        0.082773
  O           18.341523        3.478900       18.341523
  O           21.737651        6.003477       12.255273
  O           24.262227       24.262227        3.478900
  O            6.003477       20.866099        6.003477
  O           12.089727       18.341523        2.607349
  O           18.175977       21.737651        0.082773
  O            6.169023       24.262227        2.607349
  O            0.082773       20.866099        0.082773
  O           18.341523       18.341523        3.478900
  O           12.255273       21.737651        6.003477
  O            0.082773        6.003477        9.565150
  O            3.478900       12.089727       12.089727
  O            6.003477       18.175977        8.693599
  O            2.607349       24.262227        6.169023
  O            0.082773       12.255273        8.693599
  O            3.478900        6.169023        6.169023
  O            6.003477        0.082773        9.565150
  O            2.607349       18.341523       12.089727
  O            3.478900       18.341523       18.341523
  O            6.003477       21.737651       12.255273
  O            0.082773       21.737651       18.175977
  O            3.478900       24.262227       24.262227
  O            0.082773        0.082773       20.866099
  O           12.255273        6.003477       21.737651
  O            6.169023        2.607349       24.262227
  O           18.175977        0.082773       21.737651
  O            6.003477        6.003477       20.866099
  O           12.089727        2.607349       18.341523
  O           24.262227       18.341523       14.779849
  O           20.866099       12.255273       12.255273
  O           18.341523        6.169023       15.651400
  O           24.262227       12.089727       15.651400
  O           20.866099       18.175977       18.175977
  O           18.341523       24.262227       14.779849
  O           24.262227       15.651400       12.089727
  O           18.341523       14.779849       24.262227
  O           21.737651       12.255273        6.003477
  O           24.262227       14.779849       18.341523
  O           18.341523       15.651400        6.169023
  O           21.737651       18.175977        0.082773
  O            6.003477        8.693599       18.175977
  O           12.089727        6.169023       14.779849
  O           18.175977        9.565150       12.255273
  O            6.169023       12.089727       14.779849
  O            0.082773        8.693599       12.255273
  O           12.255273        9.565150       18.175977
  O            0.082773       18.175977       21.737651
  O            2.607349       12.089727       18.341523
  O            6.003477       12.255273       21.737651
  O            2.607349        6.169023       24.262227
  O            6.003477        9.565150        0.082773
  O            0.082773        9.565150        6.003477
  O           12.255273       18.175977        9.565150
  O            6.169023       14.779849       12.089727
  O           18.175977       12.255273        9.565150
  O           12.089727       14.779849        6.169023
  O           24.262227        6.169023        2.607349
  O           18.341523       12.089727        2.607349
  O           12.089727        3.478900       12.089727
  O            8.693599        6.003477       18.175977
  O            9.565150        0.082773        6.003477
  O            8.693599        0.082773       12.255273
  O            6.169023        3.478900        6.169023
  O            9.565150        6.003477        0.082773
  O           12.089727       24.262227       15.651400
  O           18.175977       20.866099       18.175977
  O           12.255273       20.866099       12.255273
  O            6.169023       18.341523       15.651400
  O           15.651400       12.089727       24.262227
  O           18.175977       18.175977       20.866099
  O           14.779849       24.262227       18.341523
  O           12.255273       12.255273       20.866099
  O           15.651400        6.169023       18.341523
  O           14.779849       18.341523       24.262227
  O           15.651400       18.341523        6.169023
  O           15.651400       24.262227       12.089727
  O           12.255273        0.082773        8.693599
  O           18.175977        6.003477        8.693599
  O            8.693599       12.255273        0.082773
  O            6.169023        6.169023        3.478900
  O           12.089727       12.089727        3.478900
  O            8.693599       18.175977        6.003477
  O           12.089727       15.651400       24.262227
  O            9.565150       12.255273       18.175977
  O            6.169023       15.651400       18.341523
  O            9.565150       18.175977       12.255273
  O           18.175977        8.693599        6.003477
  O           12.255273        8.693599        0.082773
  O           14.779849       12.089727        6.169023
  O           14.779849        6.169023       12.089727
  O           22.599463        4.309065        1.777185
  O           20.035935        4.340714        7.863435
  O           20.004286        1.777185       13.949685
  O           22.567815        1.745536       20.035935
  O           22.599463        1.777185        4.309065
  O           20.035935        1.745536       22.567815
  O           20.004286        4.309065       16.481565
  O           22.567815        4.340714       10.395315
  O            1.777185       22.599463        4.309065
  O            7.863435       20.035935        4.340714
  O           13.949685       20.004286        1.777185
  O           20.035935       22.567815        1.745536
  O            4.309065       22.599463        1.777185
  O           22.567815       20.035935        1.745536
  O           16.481565       20.004286        4.309065
  O           10.395315       22.567815        4.340714
  O            1.745536        7.863435       10.395315
  O            4.309065       13.949685       10.426964
  O            4.340714       20.035935        7.863435
  O            1.777185        1.777185        7.831786
  O            1.745536       10.395315        7.863435
  O            4.309065        4.309065        7.831786
  O            4.340714       22.567815       10.395315
  O            1.777185       16.481565       10.426964
  O            1.745536       20.035935       22.567815
  O            4.309065       20.004286       16.481565
  O            1.745536       22.567815       20.035935
  O            1.777185       20.004286       13.949685
  O           16.481565        4.309065       20.004286
  O           10.395315        4.340714       22.567815
  O            4.309065        1.777185       22.599463
  O            1.777185        4.309065       22.599463
  O            7.863435        4.340714       20.035935
  O           13.949685        1.777185       20.004286
  O           22.599463       16.481565       13.949685
  O           20.035935       10.395315       13.918036
  O           22.567815       22.567815       16.513214
  O           22.599463       13.949685       16.481565
  O           20.035935       20.035935       16.513214
  O           22.567815        7.863435       13.918036
  O           20.035935       16.513214       20.035935
  O           20.004286       13.949685        1.777185
  O           22.567815       13.918036        7.863435
  O           20.035935       13.918036       10.395315
  O           20.004286       16.481565        4.309065
  O           22.567815       16.513214       22.567815
  O            1.777185       10.426964       16.481565
  O            7.863435        7.863435       16.513214
  O           13.949685        7.831786       13.949685
  O            4.309065       10.426964       13.949685
  O           16.481565        7.831786       16.481565
  O           10.395315       10.395315       16.513214
  O            4.340714        7.863435       20.035935
  O            1.777185       13.949685       20.004286
  O            4.309065       16.481565       20.004286
  O            4.340714       10.395315       22.567815
  O            4.309065        7.831786        4.309065
  O            1.777185        7.831786        1.777185
  O           16.481565       16.481565        7.831786
  O           10.395315       16.513214       10.395315
  O            7.863435       16.513214        7.863435
  O           13.949685       13.949685        7.831786
  O           22.567815       10.395315        4.340714
  O           20.035935        7.863435        4.340714
  O           10.426964        4.309065       13.949685
  O            7.831786        1.777185        1.777185
  O           10.395315        1.745536        7.863435
  O           10.426964        1.777185       16.481565
  O            7.863435        1.745536       10.395315
  O            7.831786        4.309065        4.309065
  O           13.949685       22.599463       16.481565
  O            7.863435       22.567815       13.918036
  O           16.481565       22.599463       13.949685
  O           10.395315       20.035935       13.918036
  O           13.918036        7.863435       22.567815
  O           16.481565       13.949685       22.599463
  O           16.513214       20.035935       20.035935
  O           13.918036       10.395315       20.035935
  O           16.513214       22.567815       22.567815
  O           13.949685       16.481565       22.599463
  O           13.918036       20.035935       10.395315
  O           13.918036       22.567815        7.863435
  O           16.481565        1.777185       10.426964
  O           13.949685        4.309065       10.426964
  O           10.426964       16.481565        1.777185
  O            7.863435       10.395315        1.745536
  O           10.426964       13.949685        4.309065
  O           10.395315        7.863435        1.745536
  O            7.831786       13.949685       13.949685
  O           10.395315       13.918036       20.035935
  O            7.863435       13.918036       22.567815
  O            7.831786       16.481565       16.481565
  O           13.949685       10.426964        4.309065
  O           16.481565       10.426964        1.777185
  O           16.513214        7.863435        7.863435
  O           16.513214       10.395315       10.395315
  Si          23.052280        3.045559        0.886158
  Si          21.299440        4.793530        6.972408
  Si          19.551469        3.040691       13.058658
  Si          21.304309        1.292720       19.144908
  Si          23.052280        3.040691        5.200092
  Si          21.299440        1.292720       23.458842
  Si          19.551469        3.045559       17.372592
  Si          21.304309        4.793530       11.286342
  Si           0.886158       23.052280        3.045559
  Si           6.972408       21.299440        4.793530
  Si          13.058658       19.551469        3.040691
  Si          19.144908       21.304309        1.292720
  Si           5.200092       23.052280        3.040691
  Si          23.458842       21.299440        1.292720
  Si          17.372592       19.551469        3.045559
  Si          11.286342       21.304309        4.793530
  Si           1.292720        6.972408        9.131809
  Si           3.045559       13.058658       10.879780
  Si           4.793530       19.144908        9.126940
  Si           3.040691        0.886158        7.378970
  Si           1.292720       11.286342        9.126940
  Si           3.045559        5.200092        7.378970
  Si           4.793530       23.458842        9.131809
  Si           3.040691       17.372592       10.879780
  Si           1.292720       21.299440       23.458842
  Si           3.045559       19.551469       17.372592
  Si           4.793530       21.304309       11.286342
  Si           3.040691       23.052280        5.200092
  Si           1.292720       21.304309       19.144908
  Si           3.045559       23.052280        0.886158
  Si           4.793530       21.299440        6.972408
  Si           3.040691       19.551469       13.058658
  Si          23.458842        1.292720       21.299440
  Si          17.372592        3.045559       19.551469
  Si          11.286342        4.793530       21.304309
  Si           5.200092        3.040691       23.052280
  Si          19.144908        1.292720       21.304309
  Si           0.886158        3.045559       23.052280
  Si           6.972408        4.793530       21.299440
  Si          13.058658        3.040691       19.551469
  Si          23.052280       17.372592       15.213190
  Si          21.299440       11.286342       13.465219
  Si          19.551469        5.200092       15.218059
  Si          21.304309       23.458842       16.966030
  Si          23.052280       13.058658       15.218059
  Si          21.299440       19.144908       16.966030
  Si          19.551469        0.886158       15.213190
  Si          21.304309        6.972408       13.465219
  Si          23.052280       15.218059       13.058658
  Si          21.299440       16.966030       19.144908
  Si          19.551469       15.213190        0.886158
  Si          21.304309       13.465219        6.972408
  Si          23.052280       15.213190       17.372592
  Si          21.299440       13.465219       11.286342
  Si          19.551469       15.218059        5.200092
  Si          21.304309       16.966030       23.458842
  Si           0.886158       10.879780       15.218059
  Si           6.972408        9.126940       16.966030
  Si          13.058658        7.378970       15.213190
  Si          19.144908        9.131809       13.465219
  Si           5.200092       10.879780       15.213190
  Si          23.458842        9.126940       13.465219
  Si          17.372592        7.378970       15.218059
  Si          11.286342        9.131809       16.966030
  Si           1.292720       19.144908       21.304309
  Si           3.045559        0.886158       23.052280
  Si           4.793530        6.972408       21.299440
  Si           3.040691       13.058658       19.551469
  Si           1.292720       23.458842       21.299440
  Si           3.045559       17.372592       19.551469
  Si           4.793530       11.286342       21.304309
  Si           3.040691        5.200092       23.052280
  Si           1.292720        9.126940       11.286342
  Si           3.045559        7.378970        5.200092
  Si           4.793530        9.131809       23.458842
  Si           3.040691       10.879780       17.372592
  Si           1.292720        9.131809        6.972408
  Si           3.045559       10.879780       13.058658
  Si           4.793530        9.126940       19.144908
  Si           3.040691        7.378970        0.886158
  Si          23.458842       13.465219        9.126940
  Si          17.372592       15.218059        7.378970
  Si          11.286342       16.966030        9.131809
  Si           5.200092       15.213190       10.879780
  Si          19.144908       13.465219        9.131809
  Si           0.886158       15.218059       10.879780
  Si           6.972408       16.966030        9.126940
  Si          13.058658       15.213190        7.378970
  Si          23.052280        5.200092        3.040691
  Si          21.299440       23.458842        1.292720
  Si          19.551469       17.372592        3.045559
  Si          21.304309       11.286342        4.793530
  Si          23.052280        0.886158        3.045559
  Si          21.299440        6.972408        4.793530
  Si          19.551469       13.058658        3.040691
  Si          21.304309       19.144908        1.292720
  Si          10.879780        3.045559       13.058658
  Si           9.126940        4.793530       19.144908
  Si           7.378970        3.040691        0.886158
  Si           9.131809        1.292720        6.972408
  Si          10.879780        3.040691       17.372592
  Si           9.126940        1.292720       11.286342
  Si           7.378970        3.045559        5.200092
  Si           9.131809        4.793530       23.458842
  Si          13.058658       23.052280       15.218059
  Si          19.144908       21.299440       16.966030
  Si           0.886158       19.551469       15.213190
  Si           6.972408       21.304309       13.465219
  Si          17.372592       23.052280       15.213190
  Si          11.286342       21.299440       13.465219
  Si           5.200092       19.551469       15.218059
  Si          23.458842       21.304309       16.966030
  Si          13.465219        6.972408       21.304309
  Si          15.218059       13.058658       23.052280
  Si          16.966030       19.144908       21.299440
  Si          15.213190        0.886158       19.551469
  Si          13.465219       11.286342       21.299440
  Si          15.218059        5.200092       19.551469
  Si          16.966030       23.458842       21.304309
  Si          15.213190       17.372592       23.052280
  Si          13.465219       21.299440       11.286342
  Si          15.218059       19.551469        5.200092
  Si          16.966030       21.304309       23.458842
  Si          15.213190       23.052280       17.372592
  Si          13.465219       21.304309        6.972408
  Si          15.218059       23.052280       13.058658
  Si          16.966030       21.299440       19.144908
  Si          15.213190       19.551469        0.886158
  Si          11.286342        1.292720        9.126940
  Si           5.200092        3.045559        7.378970
  Si          23.458842        4.793530        9.131809
  Si          17.372592        3.040691       10.879780
  Si           6.972408        1.292720        9.131809
  Si          13.058658        3.045559       10.879780
  Si          19.144908        4.793530        9.126940
  Si           0.886158        3.040691        7.378970
  Si          10.879780       17.372592        3.040691
  Si           9.126940       11.286342        1.292720
  Si           7.378970        5.200092        3.045559
  Si           9.131809       23.458842        4.793530
  Si          10.879780       13.058658        3.045559
  Si           9.126940       19.144908        4.793530
  Si           7.378970        0.886158        3.040691
  Si           9.131809        6.972408        1.292720
  Si          10.879780       15.218059        0.886158
  Si           9.126940       16.966030        6.972408
  Si           7.378970       15.213190       13.058658
  Si           9.131809       13.465219       19.144908
  Si          10.879780       15.213190        5.200092
  Si           9.126940       13.465219       23.458842
  Si           7.378970       15.218059       17.372592
  Si           9.131809       16.966030       11.286342
  Si          13.058658       10.879780        3.045559
  Si          19.144908        9.126940        4.793530
  Si           0.886158        7.378970        3.040691
  Si           6.972408        9.131809        1.292720
  Si          17.372592       10.879780        3.040691
  Si          11.286342        9.126940        1.292720
  Si           5.200092        7.378970        3.045559
  Si          23.458842        9.131809        4.793530
  Si          13.465219       19.144908        9.131809
  Si          15.218059        0.886158       10.879780
  Si          16.966030        6.972408        9.126940
  Si          15.213190       13.058658        7.378970
  Si          13.465219       23.458842        9.126940
  Si          15.218059       17.372592        7.378970
  Si          16.966030       11.286342        9.131809
  Si          15.213190        5.200092       10.879780
  Si          13.465219        9.126940       23.458842
  Si          15.218059        7.378970       17.372592
  Si          16.966030        9.131809       11.286342
  Si          15.213190       10.879780        5.200092
  Si          13.465219        9.131809       19.144908
  Si          15.218059       10.879780        0.886158
  Si          16.966030        9.126940        6.972408
  Si          15.213190        7.378970       13.058658
  Si          11.286342       13.465219       21.299440
  Si           5.200092       15.218059       19.551469
  Si          23.458842       16.966030       21.304309
  Si          17.372592       15.213190       23.052280
  Si           6.972408       13.465219       21.304309
  Si          13.058658       15.218059       23.052280
  Si          19.144908       16.966030       21.299440
  Si           0.886158       15.213190       19.551469
  Si          10.879780        5.200092       15.213190
  Si           9.126940       23.458842       13.465219
  Si           7.378970       17.372592       15.218059
  Si           9.131809       11.286342       16.966030
  Si          10.879780        0.886158       15.218059
  Si           9.126940        6.972408       16.966030
  Si           7.378970       13.058658       15.213190
  Si           9.131809       19.144908       13.465219
  O           24.306080       12.449693       21.376400
  O           22.519956       13.994354       21.770123
  C           23.413018       13.222023       21.573262
  O            6.612142       22.160475       17.090044
  O            8.975210       22.534994       17.007076
  C            7.793676       22.347735       17.048560
  O           14.107823       16.014187        3.366994
  O           16.253341       16.261780        4.399799
  C           15.180582       16.137984        3.883397
  O            1.572423       14.381386        6.244550
  O            3.947758       14.606358        6.440529
  C            2.760090       14.493872        6.342539
  O            8.238889       24.284507       23.623616
  O            6.742633       22.668002       22.685870
  C            7.490761       23.476255       23.154743
  O            4.987015        0.164810       15.990738
  O            3.981038        0.254076       18.161285
  C            4.484026        0.209443       17.076012
  O            1.610812       17.866688       24.021876
  O            0.120071       15.999647       23.869934
  C            0.865442       16.933168       23.945905
  O           22.503204       23.336305       12.153131
  O           21.600295       21.414423       11.047527
  C           22.051750       22.375364       11.600329
  O           24.254831       10.827434       18.812346
  O           22.006769       10.111016       19.217561
  C           23.130800       10.469225       19.014953
  O           16.573039        0.562010        4.106329
  O           14.201762        0.236157        4.152201
  C           15.387400        0.399084        4.129265
  O           22.655164       12.970741       24.101432
  O           23.707779       10.825188       24.242301
  C           23.181472       11.897965       24.171866
  O            9.732122       10.175865        8.310265
  O            8.034515        9.994054        9.988452
  C            8.883318       10.084959        9.149359
  O            2.078450        6.621000       16.139926
  O            2.189986        5.612241       13.971701
  C            2.134218        6.116620       15.055814
  O            7.926694       19.386426       22.818418
  O           10.205388       20.035576       22.475784
  C            9.066041       19.711001       22.647101
  O            7.244198        8.290057       20.620044
  O            8.487528       10.314389       20.324325
  C            7.865863        9.302223       20.472185
  O            7.735245       23.726364       10.694854
  O            7.560497       21.943208        9.107071
  C            7.647871       22.834786        9.900962
  O           19.829577       10.345127       21.459612
  O           18.603219       12.276960       22.163389
  C           19.216398       11.311043       21.811501
  O           14.817367        2.594288        1.964945
  O           14.439092        2.649351        4.328229
  C           14.628230        2.621819        3.146587
  O            3.072958       15.849850       23.627135
  O            1.638835       14.046212       24.276303
  C            2.355896       14.948031       23.951719
  O           15.187995       13.608461       16.606774
  O           13.528690       13.864340       14.900177
  C           14.358343       13.736400       15.753476
  O           18.810992        5.105257        2.713024
  O           19.402342        3.400610        4.286466
  C           19.106667        4.252933        3.499745
  O            8.887468       23.976163       19.005172
  O           11.204220       23.372926       19.006817
  C           10.045844       23.674545       19.005994
  O           23.576882       17.811365        3.783763
  O           22.483346       19.502483        5.078188
  C           23.030114       18.656924        4.430975
  O           18.009177       10.400551       18.303931
  O           19.865220       11.042232       16.934776
  C           18.937198       10.721391       17.619353
  O           20.792948       10.331832       10.029125
  O           23.167275       10.638078       10.024525
  C           21.980112       10.484955       10.026825
  O            3.065797       13.553308        2.148152
  O            1.290814       14.662025        3.310658
  C            2.178306       14.107666        2.729405
  O            1.404271        1.968954       15.026432
  O            0.234135        2.050936       17.113367
  C            0.819203        2.009945       16.069900
  O           16.452108       10.678906       14.792143
  O           14.535656        9.561484       15.692040
  C           15.493882       10.120195       15.242091
  O           15.963259       16.345109       19.527716
  O           13.766195       15.728423       20.251486
  C           14.864727       16.036766       19.889601
  O           22.969630       21.883117       19.312095
  O           20.751423       21.056279       19.668656
  C           21.860526       21.469698       19.490376
  O            0.792908        3.234671       11.435653
  O            0.404609        3.932332       13.692582
  C            0.598759        3.583502       12.564118
  O           21.078530        6.441818       20.894630
  O           22.924157        7.867472       21.435378
  C           22.001344        7.154645       21.165004
