         648
  Built with Packmol                                             
  Zn           7.588184        7.588184        5.344736
  Zn          18.277656       18.277656       20.521104
  Zn          18.277656       18.277656        5.344736
  Zn           7.588184        7.588184       20.521104
  Zn          18.277656        7.588184       20.521104
  Zn           7.588184       18.277656        5.344736
  Zn           7.588184       18.277656       20.521104
  Zn          18.277656        7.588184        5.344736
  Zn           5.344736        7.588184        7.588184
  Zn          20.521104       18.277656       18.277656
  Zn           5.344736       18.277656       18.277656
  Zn          20.521104        7.588184        7.588184
  Zn          20.521104       18.277656        7.588184
  Zn           5.344736        7.588184       18.277656
  Zn          20.521104        7.588184       18.277656
  Zn           5.344736       18.277656        7.588184
  Zn           7.588184        5.344736        7.588184
  Zn          18.277656       20.521104       18.277656
  Zn          18.277656        5.344736       18.277656
  Zn           7.588184       20.521104        7.588184
  Zn           7.588184       20.521104       18.277656
  Zn          18.277656        5.344736        7.588184
  Zn          18.277656       20.521104        7.588184
  Zn           7.588184        5.344736       18.277656
  Zn           5.344736       20.521104       20.521104
  Zn          20.521104        5.344736        5.344736
  Zn           5.344736        5.344736        5.344736
  Zn          20.521104       20.521104       20.521104
  Zn          20.521104        5.344736       20.521104
  Zn           5.344736       20.521104        5.344736
  Zn          20.521104       20.521104        5.344736
  Zn           5.344736        5.344736       20.521104
  O            6.466460        6.466460        6.466460
  O           19.399380       19.399380       19.399380
  O           19.399380       19.399380        6.466460
  O            6.466460        6.466460       19.399380
  O           19.399380        6.466460       19.399380
  O            6.466460       19.399380        6.466460
  O            6.466460       19.399380       19.399380
  O           19.399380        6.466460        6.466460
  O            7.269387        9.475899        5.663533
  O           18.596453       16.389941       20.202307
  O           18.596453       16.389941        5.663533
  O            7.269387        9.475899       20.202307
  O           18.596453        9.475899       20.202307
  O            7.269387       16.389941        5.663533
  O            7.269387       16.389941       20.202307
  O           18.596453        9.475899        5.663533
  O            5.663533        7.269387        9.475899
  O           20.202307       18.596453       16.389941
  O            5.663533       18.596453       16.389941
  O           20.202307        7.269387        9.475899
  O           20.202307       18.596453        9.475899
  O            5.663533        7.269387       16.389941
  O           20.202307        7.269387       16.389941
  O            5.663533       18.596453        9.475899
  O            9.475899        5.663533        7.269387
  O           16.389941       20.202307       18.596453
  O           16.389941        5.663533       18.596453
  O            9.475899       20.202307        7.269387
  O            9.475899       20.202307       18.596453
  O           16.389941        5.663533        7.269387
  O           16.389941       20.202307        7.269387
  O            9.475899        5.663533       18.596453
  O            9.475899        7.269387       20.202307
  O           16.389941       18.596453        5.663533
  O           16.389941       18.596453       20.202307
  O            9.475899        7.269387        5.663533
  O            9.475899       18.596453        5.663533
  O           16.389941        7.269387       20.202307
  O           16.389941        7.269387        5.663533
  O            9.475899       18.596453       20.202307
  O            7.269387        5.663533       16.389941
  O           18.596453       20.202307        9.475899
  O           18.596453        5.663533        9.475899
  O            7.269387       20.202307       16.389941
  O           18.596453       20.202307       16.389941
  O            7.269387        5.663533        9.475899
  O            7.269387       20.202307        9.475899
  O           18.596453        5.663533       16.389941
  O            5.663533        9.475899       18.596453
  O           20.202307       16.389941        7.269387
  O            5.663533       16.389941        7.269387
  O           20.202307        9.475899       18.596453
  O           20.202307        9.475899        7.269387
  O            5.663533       16.389941       18.596453
  O           20.202307       16.389941       18.596453
  O            5.663533        9.475899        7.269387
  O            7.269387       22.408819       18.596453
  O           18.596453        3.457021        7.269387
  O           18.596453        3.457021       18.596453
  O            7.269387       22.408819        7.269387
  O           18.596453       22.408819        7.269387
  O            7.269387        3.457021       18.596453
  O            7.269387        3.457021        7.269387
  O           18.596453       22.408819       18.596453
  O            5.663533       20.202307       22.408819
  O           20.202307        5.663533        3.457021
  O            5.663533        5.663533        3.457021
  O           20.202307       20.202307       22.408819
  O           20.202307        5.663533       22.408819
  O            5.663533       20.202307        3.457021
  O           20.202307       20.202307        3.457021
  O            5.663533        5.663533       22.408819
  O            7.269387       18.596453        3.457021
  O           18.596453        7.269387       22.408819
  O           18.596453       18.596453       22.408819
  O            7.269387        7.269387        3.457021
  O           18.596453        7.269387        3.457021
  O            7.269387       18.596453       22.408819
  O            7.269387        7.269387       22.408819
  O           18.596453       18.596453        3.457021
  O            5.663533       22.408819        5.663533
  O           20.202307        3.457021       20.202307
  O            5.663533        3.457021       20.202307
  O           20.202307       22.408819        5.663533
  O           20.202307       22.408819       20.202307
  O            5.663533        3.457021        5.663533
  O           20.202307        3.457021        5.663533
  O            5.663533       22.408819       20.202307
  O           22.408819        5.663533       20.202307
  O            3.457021       20.202307        5.663533
  O            3.457021        5.663533        5.663533
  O           22.408819       20.202307       20.202307
  O           22.408819       20.202307        5.663533
  O            3.457021        5.663533       20.202307
  O            3.457021       20.202307       20.202307
  O           22.408819        5.663533        5.663533
  O           22.408819        7.269387        7.269387
  O            3.457021       18.596453       18.596453
  O            3.457021       18.596453        7.269387
  O           22.408819        7.269387       18.596453
  O           22.408819       18.596453       18.596453
  O            3.457021        7.269387        7.269387
  O            3.457021        7.269387       18.596453
  O           22.408819       18.596453        7.269387
  C            6.466460       10.051905        6.466460
  C           19.399380       15.813935       19.399380
  C           19.399380       15.813935        6.466460
  C            6.466460       10.051905       19.399380
  C           19.399380       10.051905       19.399380
  C            6.466460       15.813935        6.466460
  C            6.466460       15.813935       19.399380
  C           19.399380       10.051905        6.466460
  C            6.466460        6.466460       10.051905
  C           19.399380       19.399380       15.813935
  C            6.466460       19.399380       15.813935
  C           19.399380        6.466460       10.051905
  C           19.399380       19.399380       10.051905
  C            6.466460        6.466460       15.813935
  C           19.399380        6.466460       15.813935
  C            6.466460       19.399380       10.051905
  C           10.051905        6.466460        6.466460
  C           15.813935       19.399380       19.399380
  C           15.813935        6.466460       19.399380
  C           10.051905       19.399380        6.466460
  C           10.051905       19.399380       19.399380
  C           15.813935        6.466460        6.466460
  C           15.813935       19.399380        6.466460
  C           10.051905        6.466460       19.399380
  C            6.466460       22.984825       19.399380
  C           19.399380        2.881015        6.466460
  C           19.399380        2.881015       19.399380
  C            6.466460       22.984825        6.466460
  C           19.399380       22.984825        6.466460
  C            6.466460        2.881015       19.399380
  C            6.466460        2.881015        6.466460
  C           19.399380       22.984825       19.399380
  C            6.466460       19.399380       22.984825
  C           19.399380        6.466460        2.881015
  C            6.466460        6.466460        2.881015
  C           19.399380       19.399380       22.984825
  C           19.399380        6.466460       22.984825
  C            6.466460       19.399380        2.881015
  C           19.399380       19.399380        2.881015
  C            6.466460        6.466460       22.984825
  C           22.984825        6.466460       19.399380
  C            2.881015       19.399380        6.466460
  C            2.881015        6.466460        6.466460
  C           22.984825       19.399380       19.399380
  C           22.984825       19.399380        6.466460
  C            2.881015        6.466460       19.399380
  C            2.881015       19.399380       19.399380
  C           22.984825        6.466460        6.466460
  C            6.466460       11.541131        6.466460
  C           19.399380       14.324709       19.399380
  C           19.399380       14.324709        6.466460
  C            6.466460       11.541131       19.399380
  C           19.399380       11.541131       19.399380
  C            6.466460       14.324709        6.466460
  C            6.466460       14.324709       19.399380
  C           19.399380       11.541131        6.466460
  C            6.466460        6.466460       11.541131
  C           19.399380       19.399380       14.324709
  C            6.466460       19.399380       14.324709
  C           19.399380        6.466460       11.541131
  C           19.399380       19.399380       11.541131
  C            6.466460        6.466460       14.324709
  C           19.399380        6.466460       14.324709
  C            6.466460       19.399380       11.541131
  C           11.541131        6.466460        6.466460
  C           14.324709       19.399380       19.399380
  C           14.324709        6.466460       19.399380
  C           11.541131       19.399380        6.466460
  C           11.541131       19.399380       19.399380
  C           14.324709        6.466460        6.466460
  C           14.324709       19.399380        6.466460
  C           11.541131        6.466460       19.399380
  C            6.466460       24.474051       19.399380
  C           19.399380        1.391789        6.466460
  C           19.399380        1.391789       19.399380
  C            6.466460       24.474051        6.466460
  C           19.399380       24.474051        6.466460
  C            6.466460        1.391789       19.399380
  C            6.466460        1.391789        6.466460
  C           19.399380       24.474051       19.399380
  C            6.466460       19.399380       24.474051
  C           19.399380        6.466460        1.391789
  C            6.466460        6.466460        1.391789
  C           19.399380       19.399380       24.474051
  C           19.399380        6.466460       24.474051
  C            6.466460       19.399380        1.391789
  C           19.399380       19.399380        1.391789
  C            6.466460        6.466460       24.474051
  C           24.474051        6.466460       19.399380
  C            1.391789       19.399380        6.466460
  C            1.391789        6.466460        6.466460
  C           24.474051       19.399380       19.399380
  C           24.474051       19.399380        6.466460
  C            1.391789        6.466460       19.399380
  C            1.391789       19.399380       19.399380
  C           24.474051        6.466460        6.466460
  C            7.324352       12.239172        5.608568
  C           18.541488       13.626668       20.257272
  C           18.541488       13.626668        5.608568
  C            7.324352       12.239172       20.257272
  C           18.541488       12.239172       20.257272
  C            7.324352       13.626668        5.608568
  C            7.324352       13.626668       20.257272
  C           18.541488       12.239172        5.608568
  C            5.608568        7.324352       12.239172
  C           20.257272       18.541488       13.626668
  C            5.608568       18.541488       13.626668
  C           20.257272        7.324352       12.239172
  C           20.257272       18.541488       12.239172
  C            5.608568        7.324352       13.626668
  C           20.257272        7.324352       13.626668
  C            5.608568       18.541488       12.239172
  C           12.239172        5.608568        7.324352
  C           13.626668       20.257272       18.541488
  C           13.626668        5.608568       18.541488
  C           12.239172       20.257272        7.324352
  C           12.239172       20.257272       18.541488
  C           13.626668        5.608568        7.324352
  C           13.626668       20.257272        7.324352
  C           12.239172        5.608568       18.541488
  C           12.239172        7.324352       20.257272
  C           13.626668       18.541488        5.608568
  C           13.626668       18.541488       20.257272
  C           12.239172        7.324352        5.608568
  C           12.239172       18.541488        5.608568
  C           13.626668        7.324352       20.257272
  C           13.626668        7.324352        5.608568
  C           12.239172       18.541488       20.257272
  C            7.324352        5.608568       13.626668
  C           18.541488       20.257272       12.239172
  C           18.541488        5.608568       12.239172
  C            7.324352       20.257272       13.626668
  C           18.541488       20.257272       13.626668
  C            7.324352        5.608568       12.239172
  C            7.324352       20.257272       12.239172
  C           18.541488        5.608568       13.626668
  C            5.608568       12.239172       18.541488
  C           20.257272       13.626668        7.324352
  C            5.608568       13.626668        7.324352
  C           20.257272       12.239172       18.541488
  C           20.257272       12.239172        7.324352
  C            5.608568       13.626668       18.541488
  C           20.257272       13.626668       18.541488
  C            5.608568       12.239172        7.324352
  C            7.324352       25.172092       18.541488
  C           18.541488        0.693748        7.324352
  C           18.541488        0.693748       18.541488
  C            7.324352       25.172092        7.324352
  C           18.541488       25.172092        7.324352
  C            7.324352        0.693748       18.541488
  C            7.324352        0.693748        7.324352
  C           18.541488       25.172092       18.541488
  C            5.608568       20.257272       25.172092
  C           20.257272        5.608568        0.693748
  C            5.608568        5.608568        0.693748
  C           20.257272       20.257272       25.172092
  C           20.257272        5.608568       25.172092
  C            5.608568       20.257272        0.693748
  C           20.257272       20.257272        0.693748
  C            5.608568        5.608568       25.172092
  C            7.324352       18.541488        0.693748
  C           18.541488        7.324352       25.172092
  C           18.541488       18.541488       25.172092
  C            7.324352        7.324352        0.693748
  C           18.541488        7.324352        0.693748
  C            7.324352       18.541488       25.172092
  C            7.324352        7.324352       25.172092
  C           18.541488       18.541488        0.693748
  C            5.608568       25.172092        5.608568
  C           20.257272        0.693748       20.257272
  C            5.608568        0.693748       20.257272
  C           20.257272       25.172092        5.608568
  C           20.257272       25.172092       20.257272
  C            5.608568        0.693748        5.608568
  C           20.257272        0.693748        5.608568
  C            5.608568       25.172092       20.257272
  C           25.172092        5.608568       20.257272
  C            0.693748       20.257272        5.608568
  C            0.693748        5.608568        5.608568
  C           25.172092       20.257272       20.257272
  C           25.172092       20.257272        5.608568
  C            0.693748        5.608568       20.257272
  C            0.693748       20.257272       20.257272
  C           25.172092        5.608568        5.608568
  C           25.172092        7.324352        7.324352
  C            0.693748       18.541488       18.541488
  C            0.693748       18.541488        7.324352
  C           25.172092        7.324352       18.541488
  C           25.172092       18.541488       18.541488
  C            0.693748        7.324352        7.324352
  C            0.693748        7.324352       18.541488
  C           25.172092       18.541488        7.324352
  H            7.984526       11.670408        4.948394
  H           17.881314       14.195432       20.917446
  H           17.881314       14.195432        4.948394
  H            7.984526       11.670408       20.917446
  H           17.881314       11.670408       20.917446
  H            7.984526       14.195432        4.948394
  H            7.984526       14.195432       20.917446
  H           17.881314       11.670408        4.948394
  H            4.948394        7.984526       11.670408
  H           20.917446       17.881314       14.195432
  H            4.948394       17.881314       14.195432
  H           20.917446        7.984526       11.670408
  H           20.917446       17.881314       11.670408
  H            4.948394        7.984526       14.195432
  H           20.917446        7.984526       14.195432
  H            4.948394       17.881314       11.670408
  H           11.670408        4.948394        7.984526
  H           14.195432       20.917446       17.881314
  H           14.195432        4.948394       17.881314
  H           11.670408       20.917446        7.984526
  H           11.670408       20.917446       17.881314
  H           14.195432        4.948394        7.984526
  H           14.195432       20.917446        7.984526
  H           11.670408        4.948394       17.881314
  H           11.670408        7.984526       20.917446
  H           14.195432       17.881314        4.948394
  H           14.195432       17.881314       20.917446
  H           11.670408        7.984526        4.948394
  H           11.670408       17.881314        4.948394
  H           14.195432        7.984526       20.917446
  H           14.195432        7.984526        4.948394
  H           11.670408       17.881314       20.917446
  H            7.984526        4.948394       14.195432
  H           17.881314       20.917446       11.670408
  H           17.881314        4.948394       11.670408
  H            7.984526       20.917446       14.195432
  H           17.881314       20.917446       14.195432
  H            7.984526        4.948394       11.670408
  H            7.984526       20.917446       11.670408
  H           17.881314        4.948394       14.195432
  H            4.948394       11.670408       17.881314
  H           20.917446       14.195432        7.984526
  H            4.948394       14.195432        7.984526
  H           20.917446       11.670408       17.881314
  H           20.917446       11.670408        7.984526
  H            4.948394       14.195432       17.881314
  H           20.917446       14.195432       17.881314
  H            4.948394       11.670408        7.984526
  H            7.984526       24.603328       17.881314
  H           17.881314        1.262512        7.984526
  H           17.881314        1.262512       17.881314
  H            7.984526       24.603328        7.984526
  H           17.881314       24.603328        7.984526
  H            7.984526        1.262512       17.881314
  H            7.984526        1.262512        7.984526
  H           17.881314       24.603328       17.881314
  H            4.948394       20.917446       24.603328
  H           20.917446        4.948394        1.262512
  H            4.948394        4.948394        1.262512
  H           20.917446       20.917446       24.603328
  H           20.917446        4.948394       24.603328
  H            4.948394       20.917446        1.262512
  H           20.917446       20.917446        1.262512
  H            4.948394        4.948394       24.603328
  H            7.984526       17.881314        1.262512
  H           17.881314        7.984526       24.603328
  H           17.881314       17.881314       24.603328
  H            7.984526        7.984526        1.262512
  H           17.881314        7.984526        1.262512
  H            7.984526       17.881314       24.603328
  H            7.984526        7.984526       24.603328
  H           17.881314       17.881314        1.262512
  H            4.948394       24.603328        4.948394
  H           20.917446        1.262512       20.917446
  H            4.948394        1.262512       20.917446
  H           20.917446       24.603328        4.948394
  H           20.917446       24.603328       20.917446
  H            4.948394        1.262512        4.948394
  H           20.917446        1.262512        4.948394
  H            4.948394       24.603328       20.917446
  H           24.603328        4.948394       20.917446
  H            1.262512       20.917446        4.948394
  H            1.262512        4.948394        4.948394
  H           24.603328       20.917446       20.917446
  H           24.603328       20.917446        4.948394
  H            1.262512        4.948394       20.917446
  H            1.262512       20.917446       20.917446
  H           24.603328        4.948394        4.948394
  H           24.603328        7.984526        7.984526
  H            1.262512       17.881314       17.881314
  H            1.262512       17.881314        7.984526
  H           24.603328        7.984526       17.881314
  H           24.603328       17.881314       17.881314
  H            1.262512        7.984526        7.984526
  H            1.262512        7.984526       17.881314
  H           24.603328       17.881314        7.984526
  Li           2.950489       15.371945       11.951935
  P            3.875707       14.359728       14.042243
  F            4.378712       14.615273       15.518076
  F            5.008410       13.261729       13.954021
  F            2.534142       14.152890       14.850835
  F            4.943667       15.500093       13.806808
  F            3.337707       13.428626       12.884657
  F            2.966292       15.490834       13.417773
  Li           2.500296       12.025635       17.092149
  P            3.610551       10.789256       15.224342
  F            4.223049       10.873512       13.770331
  F            3.101700        9.349898       14.817254
  F            5.121449       11.107984       15.559003
  F            2.416693       11.451345       14.428892
  F            3.430287       10.096725       16.632996
  F            3.468981       12.161895       15.993901
  Li           8.391601       10.423963        8.771127
  P            9.524532        8.419339        9.744756
  F           10.228711        7.034817        9.455565
  F            8.942309        7.736745       11.045326
  F           11.030811        8.877103        9.610688
  F            8.430315        7.699955        8.860687
  F            9.211101        9.670586       10.657193
  F            9.432426        9.415254        8.521616
  Li           9.971007       15.484419        8.612788
  P           11.388873       16.627349       10.325495
  F           11.553451       17.025102       11.845728
  F           12.062314       18.017532        9.993430
  F           12.198214       15.384179       10.869459
  F           10.009585       17.346262       10.603211
  F           11.954262       16.376680        8.871570
  F           10.377701       15.450871       10.025778
  Li          17.013932       16.226387       10.711762
  P           15.340533       15.290500        9.107440
  F           15.070740       14.267767        7.933715
  F           14.334849       16.255053        8.362700
  F           14.874169       14.020903        9.924158
  F           16.487581       15.681114        8.093486
  F           14.866691       16.236489       10.280886
  F           16.621408       15.007601        9.988194
  Li           9.640591       12.528889        7.323439
  P           11.846073       12.288090        8.475770
  F           13.418566       12.352681        8.336153
  F           12.085549       11.093461        9.481710
  F           12.113461       13.799386        8.851123
  F           12.082869       11.320795        7.249122
  F           10.510709       12.300289        9.320196
  F           11.022489       13.031551        7.350881
  Li          12.949922       18.979310       12.250163
  P           10.679016       19.254994       13.258618
  F            9.841337       19.442449       14.585100
  F            9.472673       18.375727       12.740903
  F           10.621253       20.831265       13.350448
  F           11.207094       18.044468       14.125891
  F           10.863089       19.339281       11.691643
  F           12.215296       19.610813       13.356777
  Li          20.703967       14.480914       15.487713
  P           22.610735       15.466616       14.206063
  F           23.167259       16.729753       13.437189
  F           23.365999       14.599933       13.122165
  F           23.353750       16.221537       15.378422
  F           21.436446       15.743998       13.186012
  F           22.792882       14.089502       14.958911
  F           21.413601       15.736851       15.201173
  Li          15.026916       22.470415       15.818377
  P           12.593167       22.529263       15.249694
  F           11.249858       23.359777       15.296264
  F           11.694096       21.252868       15.492362
  F           12.664862       23.283674       13.863288
  F           12.513752       22.894059       16.784952
  F           13.509016       21.372964       14.683486
  F           13.925009       23.361209       15.424228
  Li           8.860698        3.139291        2.888059
  P           10.872812        4.435360        3.610281
  F           12.219007        4.424284        4.437347
  F           10.720534        5.939164        4.070483
  F           11.897019        3.971918        2.500046
  F           10.360291        3.937770        5.019581
  F            9.912897        5.020438        2.500035
  F           10.286670        3.018930        3.227444
  Li           9.318031        9.211334       18.040727
  P           10.894990        8.474117       16.246372
  F           12.100706        7.528993       15.859859
  F           11.557159        9.542274       15.288785
  F           10.116744        7.205104       15.716902
  F           11.935006        8.827324       17.382159
  F            9.663844        9.396540       15.886078
  F           10.078105        8.058912       17.533502
  Li          11.190230        3.482342       11.155350
  P           10.984753        3.618326       13.643178
  F           10.195489        4.229954       14.867668
  F           12.280231        3.762156       14.536179
  F            9.893724        2.500054       13.878813
  F           11.034565        5.159452       13.298433
  F           11.952448        2.555387       12.987338
  F           10.227405        3.634803       12.256617
  Li          13.652837       15.986036        3.246028
  P           15.342001       14.145436        3.340467
  F           16.170630       13.075670        2.524762
  F           15.267915       13.063377        4.489406
  F           16.649368       14.970874        3.015130
  F           14.190526       13.405857        2.550830
  F           15.077242       15.040877        4.615022
  F           14.744932       15.342735        2.500000
  Li          15.928731        6.242991       11.063897
  P           14.829193        5.170029       13.036147
  F           14.062232        5.393765       14.399274
  F           15.504702        3.925542       13.737103
  F           13.330871        5.170198       12.534716
  F           15.819145        6.147004       13.785755
  F           15.258666        4.290608       11.795755
  F           14.841027        6.397733       12.041661
  Li           2.514069        9.265780        3.432558
  P            3.582152       11.492534        3.820845
  F            4.502862       12.632261        3.229477
  F            4.250647       11.815631        5.215522
  F            2.500000       12.424981        3.145648
  F            4.854615       10.662052        3.387786
  F            2.500000       10.947806        4.835053
  F            2.944128       10.504264        2.766022
  Li          13.250503       14.738367       15.612153
  P           14.610107       16.827813       15.423217
  F           14.683405       18.305310       14.868214
  F           16.155009       16.738923       15.104190
  F           14.027248       17.633197       16.651237
  F           14.267871       16.597516       13.898017
  F           15.075977       15.666700       16.388196
  F           13.162683       16.204544       15.536789
  Li           8.834192       13.416203       23.146308
  P           10.606159       14.961965       22.297337
  F           12.061957       15.093141       21.697465
  F           10.907800       16.312589       23.059720
  F           10.294382       14.895337       20.749837
  F           11.448646       14.155904       23.363584
  F            9.150976       15.508204       22.580998
  F            9.938672       13.534505       22.182361
  Li          23.363766        9.721158       13.968888
  P           22.200517       10.729181       11.998929
  F           21.539959       10.472593       10.586758
  F           22.704843       12.101975       11.401024
  F           20.699456       10.469870       12.418422
  F           23.363301        9.961675       11.253766
  F           22.431462       11.588259       13.304704
  F           22.358603        9.460546       12.927354
  Li           9.351711       11.996342        2.978368
  P           10.649846       14.036708        3.612209
  F           11.882244       14.617271        4.412547
  F            9.890668       15.361315        4.018983
  F           11.771280       13.991345        2.500126
  F           10.392345       13.431590        5.048846
  F            9.531189       14.125975        2.499987
  F           10.700725       12.489927        3.293962
  Li          13.351128       10.714719       18.218785
  P           11.758225       12.430434       17.341869
  F           10.279609       12.986902       17.362811
  F           11.772079       12.810629       15.808357
  F           11.863061       13.502336       18.497912
  F           10.935094       11.119867       17.023641
  F           13.305647       12.568998       17.054320
  F           12.169893       11.519456       18.565408
  Li           4.614624       14.180166       10.719944
  P            6.827314       15.336679       10.848323
  F            7.587769       16.719591       10.923572
  F            8.032587       14.837355        9.957036
  F            6.932910       15.530215       12.412865
  F            6.206056       16.093693        9.608416
  F            6.742876       13.769899       11.033987
  F            5.300900       15.365705       11.255283
  Li          15.823922       10.454665       17.145387
  P           15.884458       10.376174       14.647353
  F           16.603727       10.873620       13.331450
  F           14.539743       10.455824       13.821641
  F           16.954677        9.231459       14.445716
  F           15.861997       11.941479       14.861165
  F           14.951779        9.382336       15.446600
  F           16.721519       10.503468       15.981341
  Li          15.519483       14.741846       22.682155
  P           15.032648       14.597341       20.234277
  F           14.156752       13.926301       19.103387
  F           16.220643       14.564400       19.193131
  F           13.833379       15.621981       20.143361
  F           15.249165       13.064555       20.550640
  F           15.980750       15.734783       20.785393
  F           14.448773       14.513585       21.700044
  Li          22.170715        3.491053       13.511628
  P           22.179917        3.509292       16.011545
  F           21.678127        2.807520       17.335223
  F           22.015235        4.873043       16.792228
  F           23.366000        2.500000       16.277884
  F           20.622025        3.452509       15.754352
  F           23.152758        4.462748       15.210981
  F           22.129425        2.627527       14.701453
  Li           6.375620        9.797098       13.271091
  P            8.282617       11.367650       13.654143
  F            9.253241       12.026883       14.712303
  F            8.327581       12.754760       12.898958
  F            9.479973       10.336883       13.638086
  F            7.247099       11.952058       14.694610
  F            7.885882       10.950737       12.182687
  F            7.552386       10.045401       14.117632
  Li          13.053544       23.013685        8.384309
  P           12.550254       22.223218       10.702037
  F           13.056484       21.398125       11.950777
  F           11.108509       21.682944       11.056830
  F           13.275169       23.356869       11.530127
  F           12.916451       20.842586       10.026645
  F           11.620373       23.300328       10.015338
  F           13.664750       22.681447        9.680114
  Li          10.588097       12.324332       20.204375
  P           12.421381       11.575161       21.730092
  F           12.911566       10.484778       22.763139
  F           13.173216       12.627372       22.637836
  F           13.172725       10.573202       20.766786
  F           11.208602       11.547793       22.742425
  F           12.672517       12.760283       20.715786
  F           11.245785       11.136591       20.769869
  Li           2.500000       20.477623       10.797345
  P            3.368047       20.897692       13.103865
  F            4.110868       20.294685       14.361243
  F            2.500000       21.719382       14.137170
  F            4.868028       21.255408       12.759629
  F            2.500001       19.606757       13.380236
  F            2.862534       22.104432       12.218070
  F            3.563893       20.114505       11.745681
