         800
  Built with Packmol                                             
  O           21.808251        2.536749        0.000000
  O           21.808251        3.549501        6.086250
  O           20.795499        3.549501       12.172500
  O           20.795499        2.536749       18.258750
  O            0.000000       21.808251        2.536749
  O            6.086250       21.808251        3.549501
  O           12.172500       20.795499        3.549501
  O           18.258750       20.795499        2.536749
  O            2.536749        6.086250        8.622999
  O            2.536749       12.172500        9.635751
  O            3.549501       18.258750        9.635751
  O            3.549501        0.000000        8.622999
  O            2.536749       21.808251        0.000000
  O            2.536749       20.795499       18.258750
  O            3.549501       20.795499       12.172500
  O            3.549501       21.808251        6.086250
  O            0.000000        2.536749       21.808251
  O           18.258750        2.536749       20.795499
  O           12.172500        3.549501       20.795499
  O            6.086250        3.549501       21.808251
  O           21.808251       18.258750       15.722001
  O           21.808251       12.172500       14.709249
  O           20.795499        6.086250       14.709249
  O           20.795499        0.000000       15.722001
  O           21.808251       14.709249       12.172500
  O           21.808251       15.722001       18.258750
  O           20.795499       15.722001        0.000000
  O           20.795499       14.709249        6.086250
  O            0.000000        9.635751       14.709249
  O            6.086250        9.635751       15.722001
  O           12.172500        8.622999       15.722001
  O           18.258750        8.622999       14.709249
  O            2.536749       18.258750       20.795499
  O            2.536749        0.000000       21.808251
  O            3.549501        6.086250       21.808251
  O            3.549501       12.172500       20.795499
  O            2.536749        9.635751       12.172500
  O            2.536749        8.622999        6.086250
  O            3.549501        8.622999        0.000000
  O            3.549501        9.635751       18.258750
  O            0.000000       14.709249        9.635751
  O           18.258750       14.709249        8.622999
  O           12.172500       15.722001        8.622999
  O            6.086250       15.722001        9.635751
  O           21.808251        6.086250        3.549501
  O           21.808251        0.000000        2.536749
  O           20.795499       18.258750        2.536749
  O           20.795499       12.172500        3.549501
  O            9.635751        2.536749       12.172500
  O            9.635751        3.549501       18.258750
  O            8.622999        3.549501        0.000000
  O            8.622999        2.536749        6.086250
  O           12.172500       21.808251       14.709249
  O           18.258750       21.808251       15.722001
  O            0.000000       20.795499       15.722001
  O            6.086250       20.795499       14.709249
  O           14.709249        6.086250       20.795499
  O           14.709249       12.172500       21.808251
  O           15.722001       18.258750       21.808251
  O           15.722001        0.000000       20.795499
  O           14.709249       21.808251       12.172500
  O           14.709249       20.795499        6.086250
  O           15.722001       20.795499        0.000000
  O           15.722001       21.808251       18.258750
  O           12.172500        2.536749        9.635751
  O            6.086250        2.536749        8.622999
  O            0.000000        3.549501        8.622999
  O           18.258750        3.549501        9.635751
  O            9.635751       18.258750        3.549501
  O            9.635751       12.172500        2.536749
  O            8.622999        6.086250        2.536749
  O            8.622999        0.000000        3.549501
  O            9.635751       14.709249        0.000000
  O            9.635751       15.722001        6.086250
  O            8.622999       15.722001       12.172500
  O            8.622999       14.709249       18.258750
  O           12.172500        9.635751        2.536749
  O           18.258750        9.635751        3.549501
  O            0.000000        8.622999        3.549501
  O            6.086250        8.622999        2.536749
  O           14.709249       18.258750        8.622999
  O           14.709249        0.000000        9.635751
  O           15.722001        6.086250        9.635751
  O           15.722001       12.172500        8.622999
  O           14.709249        9.635751        0.000000
  O           14.709249        8.622999       18.258750
  O           15.722001        8.622999       12.172500
  O           15.722001        9.635751        6.086250
  O           12.172500       14.709249       21.808251
  O            6.086250       14.709249       20.795499
  O            0.000000       15.722001       20.795499
  O           18.258750       15.722001       21.808251
  O            9.635751        6.086250       15.722001
  O            9.635751        0.000000       14.709249
  O            8.622999       18.258750       14.709249
  O            8.622999       12.172500       15.722001
  O           23.539180        1.855089        1.855089
  O           22.489911        5.280430        7.941339
  O           19.064570        4.231161       14.027589
  O           20.113839        0.805820       20.113839
  O           23.539180        4.231161        4.231161
  O           22.489911        0.805820       22.489911
  O           19.064570        1.855089       16.403661
  O           20.113839        5.280430       10.317411
  O            1.855089       23.539180        1.855089
  O            7.941339       22.489911        5.280430
  O           14.027589       19.064570        4.231161
  O           20.113839       20.113839        0.805820
  O            4.231161       23.539180        4.231161
  O           22.489911       22.489911        0.805820
  O           16.403661       19.064570        1.855089
  O           10.317411       20.113839        5.280430
  O            0.805820        7.941339        7.941339
  O            1.855089       14.027589       11.366680
  O            5.280430       20.113839       10.317411
  O            4.231161        1.855089        6.892069
  O            0.805820       10.317411       10.317411
  O            1.855089        4.231161        6.892069
  O            5.280430       22.489911        7.941339
  O            4.231161       16.403661       11.366680
  O            0.805820       22.489911       22.489911
  O            1.855089       19.064570       16.403661
  O            0.805820       20.113839       20.113839
  O            4.231161       19.064570       14.027589
  O           16.403661        1.855089       19.064570
  O           10.317411        5.280430       20.113839
  O            4.231161        4.231161       23.539180
  O            1.855089        1.855089       23.539180
  O            7.941339        5.280430       22.489911
  O           14.027589        4.231161       19.064570
  O           23.539180       16.403661       16.403661
  O           22.489911       10.317411       12.978319
  O           20.113839       22.489911       17.452930
  O           23.539180       14.027589       14.027589
  O           22.489911       20.113839       17.452930
  O           20.113839        7.941339       12.978319
  O           22.489911       17.452930       20.113839
  O           19.064570       16.403661        1.855089
  O           20.113839       12.978319        7.941339
  O           22.489911       12.978319       10.317411
  O           19.064570       14.027589        4.231161
  O           20.113839       17.452930       22.489911
  O            1.855089       11.366680       14.027589
  O            7.941339       10.317411       17.452930
  O           14.027589        6.892069       16.403661
  O            4.231161       11.366680       16.403661
  O           16.403661        6.892069       14.027589
  O           10.317411        7.941339       17.452930
  O            5.280430        7.941339       22.489911
  O            4.231161       14.027589       19.064570
  O            1.855089       16.403661       19.064570
  O            5.280430       10.317411       20.113839
  O            1.855089        6.892069        4.231161
  O            4.231161        6.892069        1.855089
  O           16.403661       14.027589        6.892069
  O           10.317411       17.452930        7.941339
  O            7.941339       17.452930       10.317411
  O           14.027589       16.403661        6.892069
  O           20.113839       10.317411        5.280430
  O           22.489911        7.941339        5.280430
  O           11.366680        1.855089       14.027589
  O            6.892069        4.231161        1.855089
  O            7.941339        0.805820        7.941339
  O           11.366680        4.231161       16.403661
  O           10.317411        0.805820       10.317411
  O            6.892069        1.855089        4.231161
  O           14.027589       23.539180       14.027589
  O            7.941339       20.113839       12.978319
  O           16.403661       23.539180       16.403661
  O           10.317411       22.489911       12.978319
  O           12.978319        7.941339       20.113839
  O           14.027589       14.027589       23.539180
  O           17.452930       20.113839       22.489911
  O           12.978319       10.317411       22.489911
  O           17.452930       22.489911       20.113839
  O           16.403661       16.403661       23.539180
  O           12.978319       22.489911       10.317411
  O           12.978319       20.113839        7.941339
  O           16.403661        4.231161       11.366680
  O           14.027589        1.855089       11.366680
  O           11.366680       16.403661        4.231161
  O           10.317411       10.317411        0.805820
  O           11.366680       14.027589        1.855089
  O            7.941339        7.941339        0.805820
  O            6.892069       16.403661       14.027589
  O            7.941339       12.978319       20.113839
  O           10.317411       12.978319       22.489911
  O            6.892069       14.027589       16.403661
  O           14.027589       11.366680        1.855089
  O           16.403661       11.366680        4.231161
  O           17.452930        7.941339       10.317411
  O           17.452930       10.317411        7.941339
  O           24.262227        3.478900       24.262227
  O           20.866099        6.003477        6.003477
  O           18.341523        2.607349       12.089727
  O           21.737651        0.082773       18.175977
  O           24.262227        2.607349        6.169023
  O           20.866099        0.082773        0.082773
  O           18.341523        3.478900       18.341523
  O           21.737651        6.003477       12.255273
  O           24.262227       24.262227        3.478900
  O            6.003477       20.866099        6.003477
  O           12.089727       18.341523        2.607349
  O           18.175977       21.737651        0.082773
  O            6.169023       24.262227        2.607349
  O            0.082773       20.866099        0.082773
  O           18.341523       18.341523        3.478900
  O           12.255273       21.737651        6.003477
  O            0.082773        6.003477        9.565150
  O            3.478900       12.089727       12.089727
  O            6.003477       18.175977        8.693599
  O            2.607349       24.262227        6.169023
  O            0.082773       12.255273        8.693599
  O            3.478900        6.169023        6.169023
  O            6.003477        0.082773        9.565150
  O            2.607349       18.341523       12.089727
  O            3.478900       18.341523       18.341523
  O            6.003477       21.737651       12.255273
  O            0.082773       21.737651       18.175977
  O            3.478900       24.262227       24.262227
  O            0.082773        0.082773       20.866099
  O           12.255273        6.003477       21.737651
  O            6.169023        2.607349       24.262227
  O           18.175977        0.082773       21.737651
  O            6.003477        6.003477       20.866099
  O           12.089727        2.607349       18.341523
  O           24.262227       18.341523       14.779849
  O           20.866099       12.255273       12.255273
  O           18.341523        6.169023       15.651400
  O           24.262227       12.089727       15.651400
  O           20.866099       18.175977       18.175977
  O           18.341523       24.262227       14.779849
  O           24.262227       15.651400       12.089727
  O           18.341523       14.779849       24.262227
  O           21.737651       12.255273        6.003477
  O           24.262227       14.779849       18.341523
  O           18.341523       15.651400        6.169023
  O           21.737651       18.175977        0.082773
  O            6.003477        8.693599       18.175977
  O           12.089727        6.169023       14.779849
  O           18.175977        9.565150       12.255273
  O            6.169023       12.089727       14.779849
  O            0.082773        8.693599       12.255273
  O           12.255273        9.565150       18.175977
  O            0.082773       18.175977       21.737651
  O            2.607349       12.089727       18.341523
  O            6.003477       12.255273       21.737651
  O            2.607349        6.169023       24.262227
  O            6.003477        9.565150        0.082773
  O            0.082773        9.565150        6.003477
  O           12.255273       18.175977        9.565150
  O            6.169023       14.779849       12.089727
  O           18.175977       12.255273        9.565150
  O           12.089727       14.779849        6.169023
  O           24.262227        6.169023        2.607349
  O           18.341523       12.089727        2.607349
  O           12.089727        3.478900       12.089727
  O            8.693599        6.003477       18.175977
  O            9.565150        0.082773        6.003477
  O            8.693599        0.082773       12.255273
  O            6.169023        3.478900        6.169023
  O            9.565150        6.003477        0.082773
  O           12.089727       24.262227       15.651400
  O           18.175977       20.866099       18.175977
  O           12.255273       20.866099       12.255273
  O            6.169023       18.341523       15.651400
  O           15.651400       12.089727       24.262227
  O           18.175977       18.175977       20.866099
  O           14.779849       24.262227       18.341523
  O           12.255273       12.255273       20.866099
  O           15.651400        6.169023       18.341523
  O           14.779849       18.341523       24.262227
  O           15.651400       18.341523        6.169023
  O           15.651400       24.262227       12.089727
  O           12.255273        0.082773        8.693599
  O           18.175977        6.003477        8.693599
  O            8.693599       12.255273        0.082773
  O            6.169023        6.169023        3.478900
  O           12.089727       12.089727        3.478900
  O            8.693599       18.175977        6.003477
  O           12.089727       15.651400       24.262227
  O            9.565150       12.255273       18.175977
  O            6.169023       15.651400       18.341523
  O            9.565150       18.175977       12.255273
  O           18.175977        8.693599        6.003477
  O           12.255273        8.693599        0.082773
  O           14.779849       12.089727        6.169023
  O           14.779849        6.169023       12.089727
  O           22.599463        4.309065        1.777185
  O           20.035935        4.340714        7.863435
  O           20.004286        1.777185       13.949685
  O           22.567815        1.745536       20.035935
  O           22.599463        1.777185        4.309065
  O           20.035935        1.745536       22.567815
  O           20.004286        4.309065       16.481565
  O           22.567815        4.340714       10.395315
  O            1.777185       22.599463        4.309065
  O            7.863435       20.035935        4.340714
  O           13.949685       20.004286        1.777185
  O           20.035935       22.567815        1.745536
  O            4.309065       22.599463        1.777185
  O           22.567815       20.035935        1.745536
  O           16.481565       20.004286        4.309065
  O           10.395315       22.567815        4.340714
  O            1.745536        7.863435       10.395315
  O            4.309065       13.949685       10.426964
  O            4.340714       20.035935        7.863435
  O            1.777185        1.777185        7.831786
  O            1.745536       10.395315        7.863435
  O            4.309065        4.309065        7.831786
  O            4.340714       22.567815       10.395315
  O            1.777185       16.481565       10.426964
  O            1.745536       20.035935       22.567815
  O            4.309065       20.004286       16.481565
  O            1.745536       22.567815       20.035935
  O            1.777185       20.004286       13.949685
  O           16.481565        4.309065       20.004286
  O           10.395315        4.340714       22.567815
  O            4.309065        1.777185       22.599463
  O            1.777185        4.309065       22.599463
  O            7.863435        4.340714       20.035935
  O           13.949685        1.777185       20.004286
  O           22.599463       16.481565       13.949685
  O           20.035935       10.395315       13.918036
  O           22.567815       22.567815       16.513214
  O           22.599463       13.949685       16.481565
  O           20.035935       20.035935       16.513214
  O           22.567815        7.863435       13.918036
  O           20.035935       16.513214       20.035935
  O           20.004286       13.949685        1.777185
  O           22.567815       13.918036        7.863435
  O           20.035935       13.918036       10.395315
  O           20.004286       16.481565        4.309065
  O           22.567815       16.513214       22.567815
  O            1.777185       10.426964       16.481565
  O            7.863435        7.863435       16.513214
  O           13.949685        7.831786       13.949685
  O            4.309065       10.426964       13.949685
  O           16.481565        7.831786       16.481565
  O           10.395315       10.395315       16.513214
  O            4.340714        7.863435       20.035935
  O            1.777185       13.949685       20.004286
  O            4.309065       16.481565       20.004286
  O            4.340714       10.395315       22.567815
  O            4.309065        7.831786        4.309065
  O            1.777185        7.831786        1.777185
  O           16.481565       16.481565        7.831786
  O           10.395315       16.513214       10.395315
  O            7.863435       16.513214        7.863435
  O           13.949685       13.949685        7.831786
  O           22.567815       10.395315        4.340714
  O           20.035935        7.863435        4.340714
  O           10.426964        4.309065       13.949685
  O            7.831786        1.777185        1.777185
  O           10.395315        1.745536        7.863435
  O           10.426964        1.777185       16.481565
  O            7.863435        1.745536       10.395315
  O            7.831786        4.309065        4.309065
  O           13.949685       22.599463       16.481565
  O            7.863435       22.567815       13.918036
  O           16.481565       22.599463       13.949685
  O           10.395315       20.035935       13.918036
  O           13.918036        7.863435       22.567815
  O           16.481565       13.949685       22.599463
  O           16.513214       20.035935       20.035935
  O           13.918036       10.395315       20.035935
  O           16.513214       22.567815       22.567815
  O           13.949685       16.481565       22.599463
  O           13.918036       20.035935       10.395315
  O           13.918036       22.567815        7.863435
  O           16.481565        1.777185       10.426964
  O           13.949685        4.309065       10.426964
  O           10.426964       16.481565        1.777185
  O            7.863435       10.395315        1.745536
  O           10.426964       13.949685        4.309065
  O           10.395315        7.863435        1.745536
  O            7.831786       13.949685       13.949685
  O           10.395315       13.918036       20.035935
  O            7.863435       13.918036       22.567815
  O            7.831786       16.481565       16.481565
  O           13.949685       10.426964        4.309065
  O           16.481565       10.426964        1.777185
  O           16.513214        7.863435        7.863435
  O           16.513214       10.395315       10.395315
  Si          23.052280        3.045559        0.886158
  Si          21.299440        4.793530        6.972408
  Si          19.551469        3.040691       13.058658
  Si          21.304309        1.292720       19.144908
  Si          23.052280        3.040691        5.200092
  Si          21.299440        1.292720       23.458842
  Si          19.551469        3.045559       17.372592
  Si          21.304309        4.793530       11.286342
  Si           0.886158       23.052280        3.045559
  Si           6.972408       21.299440        4.793530
  Si          13.058658       19.551469        3.040691
  Si          19.144908       21.304309        1.292720
  Si           5.200092       23.052280        3.040691
  Si          23.458842       21.299440        1.292720
  Si          17.372592       19.551469        3.045559
  Si          11.286342       21.304309        4.793530
  Si           1.292720        6.972408        9.131809
  Si           3.045559       13.058658       10.879780
  Si           4.793530       19.144908        9.126940
  Si           3.040691        0.886158        7.378970
  Si           1.292720       11.286342        9.126940
  Si           3.045559        5.200092        7.378970
  Si           4.793530       23.458842        9.131809
  Si           3.040691       17.372592       10.879780
  Si           1.292720       21.299440       23.458842
  Si           3.045559       19.551469       17.372592
  Si           4.793530       21.304309       11.286342
  Si           3.040691       23.052280        5.200092
  Si           1.292720       21.304309       19.144908
  Si           3.045559       23.052280        0.886158
  Si           4.793530       21.299440        6.972408
  Si           3.040691       19.551469       13.058658
  Si          23.458842        1.292720       21.299440
  Si          17.372592        3.045559       19.551469
  Si          11.286342        4.793530       21.304309
  Si           5.200092        3.040691       23.052280
  Si          19.144908        1.292720       21.304309
  Si           0.886158        3.045559       23.052280
  Si           6.972408        4.793530       21.299440
  Si          13.058658        3.040691       19.551469
  Si          23.052280       17.372592       15.213190
  Si          21.299440       11.286342       13.465219
  Si          19.551469        5.200092       15.218059
  Si          21.304309       23.458842       16.966030
  Si          23.052280       13.058658       15.218059
  Si          21.299440       19.144908       16.966030
  Si          19.551469        0.886158       15.213190
  Si          21.304309        6.972408       13.465219
  Si          23.052280       15.218059       13.058658
  Si          21.299440       16.966030       19.144908
  Si          19.551469       15.213190        0.886158
  Si          21.304309       13.465219        6.972408
  Si          23.052280       15.213190       17.372592
  Si          21.299440       13.465219       11.286342
  Si          19.551469       15.218059        5.200092
  Si          21.304309       16.966030       23.458842
  Si           0.886158       10.879780       15.218059
  Si           6.972408        9.126940       16.966030
  Si          13.058658        7.378970       15.213190
  Si          19.144908        9.131809       13.465219
  Si           5.200092       10.879780       15.213190
  Si          23.458842        9.126940       13.465219
  Si          17.372592        7.378970       15.218059
  Si          11.286342        9.131809       16.966030
  Si           1.292720       19.144908       21.304309
  Si           3.045559        0.886158       23.052280
  Si           4.793530        6.972408       21.299440
  Si           3.040691       13.058658       19.551469
  Si           1.292720       23.458842       21.299440
  Si           3.045559       17.372592       19.551469
  Si           4.793530       11.286342       21.304309
  Si           3.040691        5.200092       23.052280
  Si           1.292720        9.126940       11.286342
  Si           3.045559        7.378970        5.200092
  Si           4.793530        9.131809       23.458842
  Si           3.040691       10.879780       17.372592
  Si           1.292720        9.131809        6.972408
  Si           3.045559       10.879780       13.058658
  Si           4.793530        9.126940       19.144908
  Si           3.040691        7.378970        0.886158
  Si          23.458842       13.465219        9.126940
  Si          17.372592       15.218059        7.378970
  Si          11.286342       16.966030        9.131809
  Si           5.200092       15.213190       10.879780
  Si          19.144908       13.465219        9.131809
  Si           0.886158       15.218059       10.879780
  Si           6.972408       16.966030        9.126940
  Si          13.058658       15.213190        7.378970
  Si          23.052280        5.200092        3.040691
  Si          21.299440       23.458842        1.292720
  Si          19.551469       17.372592        3.045559
  Si          21.304309       11.286342        4.793530
  Si          23.052280        0.886158        3.045559
  Si          21.299440        6.972408        4.793530
  Si          19.551469       13.058658        3.040691
  Si          21.304309       19.144908        1.292720
  Si          10.879780        3.045559       13.058658
  Si           9.126940        4.793530       19.144908
  Si           7.378970        3.040691        0.886158
  Si           9.131809        1.292720        6.972408
  Si          10.879780        3.040691       17.372592
  Si           9.126940        1.292720       11.286342
  Si           7.378970        3.045559        5.200092
  Si           9.131809        4.793530       23.458842
  Si          13.058658       23.052280       15.218059
  Si          19.144908       21.299440       16.966030
  Si           0.886158       19.551469       15.213190
  Si           6.972408       21.304309       13.465219
  Si          17.372592       23.052280       15.213190
  Si          11.286342       21.299440       13.465219
  Si           5.200092       19.551469       15.218059
  Si          23.458842       21.304309       16.966030
  Si          13.465219        6.972408       21.304309
  Si          15.218059       13.058658       23.052280
  Si          16.966030       19.144908       21.299440
  Si          15.213190        0.886158       19.551469
  Si          13.465219       11.286342       21.299440
  Si          15.218059        5.200092       19.551469
  Si          16.966030       23.458842       21.304309
  Si          15.213190       17.372592       23.052280
  Si          13.465219       21.299440       11.286342
  Si          15.218059       19.551469        5.200092
  Si          16.966030       21.304309       23.458842
  Si          15.213190       23.052280       17.372592
  Si          13.465219       21.304309        6.972408
  Si          15.218059       23.052280       13.058658
  Si          16.966030       21.299440       19.144908
  Si          15.213190       19.551469        0.886158
  Si          11.286342        1.292720        9.126940
  Si           5.200092        3.045559        7.378970
  Si          23.458842        4.793530        9.131809
  Si          17.372592        3.040691       10.879780
  Si           6.972408        1.292720        9.131809
  Si          13.058658        3.045559       10.879780
  Si          19.144908        4.793530        9.126940
  Si           0.886158        3.040691        7.378970
  Si          10.879780       17.372592        3.040691
  Si           9.126940       11.286342        1.292720
  Si           7.378970        5.200092        3.045559
  Si           9.131809       23.458842        4.793530
  Si          10.879780       13.058658        3.045559
  Si           9.126940       19.144908        4.793530
  Si           7.378970        0.886158        3.040691
  Si           9.131809        6.972408        1.292720
  Si          10.879780       15.218059        0.886158
  Si           9.126940       16.966030        6.972408
  Si           7.378970       15.213190       13.058658
  Si           9.131809       13.465219       19.144908
  Si          10.879780       15.213190        5.200092
  Si           9.126940       13.465219       23.458842
  Si           7.378970       15.218059       17.372592
  Si           9.131809       16.966030       11.286342
  Si          13.058658       10.879780        3.045559
  Si          19.144908        9.126940        4.793530
  Si           0.886158        7.378970        3.040691
  Si           6.972408        9.131809        1.292720
  Si          17.372592       10.879780        3.040691
  Si          11.286342        9.126940        1.292720
  Si           5.200092        7.378970        3.045559
  Si          23.458842        9.131809        4.793530
  Si          13.465219       19.144908        9.131809
  Si          15.218059        0.886158       10.879780
  Si          16.966030        6.972408        9.126940
  Si          15.213190       13.058658        7.378970
  Si          13.465219       23.458842        9.126940
  Si          15.218059       17.372592        7.378970
  Si          16.966030       11.286342        9.131809
  Si          15.213190        5.200092       10.879780
  Si          13.465219        9.126940       23.458842
  Si          15.218059        7.378970       17.372592
  Si          16.966030        9.131809       11.286342
  Si          15.213190       10.879780        5.200092
  Si          13.465219        9.131809       19.144908
  Si          15.218059       10.879780        0.886158
  Si          16.966030        9.126940        6.972408
  Si          15.213190        7.378970       13.058658
  Si          11.286342       13.465219       21.299440
  Si           5.200092       15.218059       19.551469
  Si          23.458842       16.966030       21.304309
  Si          17.372592       15.213190       23.052280
  Si           6.972408       13.465219       21.304309
  Si          13.058658       15.218059       23.052280
  Si          19.144908       16.966030       21.299440
  Si           0.886158       15.213190       19.551469
  Si          10.879780        5.200092       15.213190
  Si           9.126940       23.458842       13.465219
  Si           7.378970       17.372592       15.218059
  Si           9.131809       11.286342       16.966030
  Si          10.879780        0.886158       15.218059
  Si           9.126940        6.972408       16.966030
  Si           7.378970       13.058658       15.213190
  Si           9.131809       19.144908       13.465219
  Li           3.261874       13.656430       16.460952
  P            4.081794       16.018013       16.435301
  F            5.064825       17.077488       17.073710
  F            3.054398       17.209431       16.289080
  F            5.345037       15.848053       15.501635
  F            3.724579       15.879917       17.968183
  F            3.139864       15.496180       15.279076
  F            4.444567       14.500956       16.686962
  Li          14.302152       14.334166       18.840697
  P           15.049398       13.596123       16.572015
  F           15.982146       13.892979       15.331749
  F           13.990044       13.074381       15.522274
  F           16.341500       12.779951       16.972933
  F           14.656225       15.091351       16.246272
  F           14.154852       12.641878       17.458357
  F           15.451910       14.307931       17.923944
  Li          10.084119       15.066440        8.274054
  P            9.095702       13.059577        7.158020
  F            9.307931       11.554236        6.727545
  F            8.282282       13.223787        5.813482
  F            8.525799       12.307485        8.425289
  F           10.457238       13.159364        6.362620
  F            8.188439       14.313203        7.476914
  F           10.059357       13.595992        8.289403
  Li          18.326298       11.262001       21.800963
  P           16.937827       11.335510       19.723286
  F           15.507997       11.596587       19.103749
  F           17.095737       10.208442       18.627301
  F           17.035814       12.878029       19.395518
  F           16.044554       10.374044       20.603086
  F           18.508538       11.199607       19.619383
  F           17.186347       11.937523       21.162806
  Li          17.414649       18.647512       11.643913
  P           17.021025       18.869025       14.102773
  F           16.768549       18.116381       15.468856
  F           16.037314       19.978448       14.648569
  F           18.502996       18.697739       14.623182
  F           15.794211       17.949266       13.721500
  F           17.450135       20.131082       13.254553
  F           17.652507       18.001042       12.943361
  Li           5.346171       11.320584        8.231393
  P            5.294186       11.355612        5.732179
  F            4.562623       11.890233        4.437808
  F            5.544845       10.024901        4.918066
  F            6.096356       12.691503        5.470801
  F            3.804505       10.914959        6.020405
  F            6.537892       10.740448        6.487936
  F            5.004527       12.150768        7.066430
  Li          12.631149       18.550614       16.414151
  P           14.130850       18.704930       18.408414
  F           14.374651       19.361156       19.824864
  F           15.697022       18.782900       18.214948
  F           13.428846       17.646565       19.348336
  F           13.997516       20.240205       18.059769
  F           14.380358       17.590355       17.316687
  F           12.646246       18.757102       17.870242
  Li           3.580106        2.614686       11.569667
  P            3.649677        3.532742       13.893959
  F            4.294120        4.593157       14.872026
  F            3.632753        2.551118       15.131912
  F            2.638155        4.735697       13.732329
  F            5.189183        3.252537       13.675315
  F            2.518980        2.508693       13.482564
  F            3.789497        3.842970       12.351037
  Li          13.995988       17.772589       11.213383
  P           12.756379       17.285742       13.329122
  F           11.506375       17.630558       14.231891
  F           13.549382       17.083155       14.680605
  F           11.701752       16.243863       12.782632
  F           12.900827       18.853391       13.463322
  F           13.941728       16.345521       12.873784
  F           12.654413       17.721900       11.813942
  Li          12.297451        3.311908        7.164879
  P           12.048741        3.461593        4.681789
  F           12.355378        2.789869        3.284949
  F           12.259169        4.845346        3.948747
  F           10.756639        2.572194        4.492467
  F           13.612750        3.259091        4.778054
  F           11.247296        4.451182        5.617097
  F           12.145993        2.511418        5.940403
  Li          11.769410        6.860134        7.651795
  P           13.957690        6.418857        6.526315
  F           15.522472        6.282615        6.697473
  F           14.269779        7.072387        5.122072
  F           14.089812        4.869391        6.805777
  F           14.304246        7.779006        7.251776
  F           12.605154        6.176823        5.746273
  F           13.103930        6.273891        7.847859
  Li          18.410664        6.123085       18.008959
  P           18.989607        7.591992       19.947292
  F           18.603254        8.869725       20.792592
  F           20.493921        7.997979       20.209234
  F           18.064979        6.945207       21.053245
  F           18.877696        8.685534       18.812372
  F           19.738297        6.214942       19.748312
  F           17.836296        6.977868       19.058965
  Li          16.645366        3.987990        3.308281
  P           17.794216        4.470210        5.475678
  F           18.059983        3.995653        6.959108
  F           17.810999        5.941802        6.050601
  F           19.101829        3.605486        5.278699
  F           16.317505        4.267577        5.999763
  F           18.144981        5.318609        4.189761
  F           17.277272        3.359326        4.478128
  Li           9.970703        8.003486       10.817276
  P            9.345070        9.664402        9.056611
  F            8.233000       10.159689        8.049441
  F           10.390409       10.065513        7.941813
  F            8.587949       10.723986        9.951289
  F            9.015076        8.325729        8.284951
  F           10.662667        9.869912        9.904019
  F            8.842350        8.754560       10.246510
  Li          13.297830        9.458366        6.174274
  P           11.096812        8.715357        5.250445
  F           10.237713        7.505817        4.706974
  F           10.356683        9.596201        4.167522
  F           10.404560        8.223389        6.582794
  F           12.058429        8.133520        4.139968
  F           11.251456       10.168521        5.851110
  F           12.356024        8.329878        6.123481
  Li           5.297071        6.613078       12.315512
  P            5.607334        5.752192        9.989010
  F            6.551601        4.977405        8.986778
  F            5.201103        6.649752        8.753792
  F            5.093849        4.270956       10.185669
  F            6.954246        6.561927       10.151975
  F            4.202040        6.314194       10.442553
  F            5.901031        5.529539       11.525424
  Li          17.022674       15.750061       11.920409
  P           15.447442       14.241068       10.699104
  F           13.945491       13.942512       10.309990
  F           15.632160       12.673987       10.779952
  F           15.334847       15.027634        9.333440
  F           14.757668       14.246925       12.120574
  F           17.006740       14.085753       10.496954
  F           15.757562       15.716681       11.171114
  Li          13.787608       13.524352        3.282576
  P           15.708978       15.111741        3.478877
  F           17.006289       15.699687        2.794989
  F           16.494846       15.235903        4.843939
  F           15.102221       16.355225        2.715993
  F           16.496389       13.787054        3.130179
  F           14.530443       15.164078        4.529931
  F           14.680009       14.403177        2.511633
  Li          12.819970       11.148137       14.824135
  P           12.949611       11.722284       12.394413
  F           13.753766       11.559605       11.044128
  F           12.635969       13.193976       11.912591
  F           12.246044       10.445895       11.784311
  F           14.397411       12.164306       12.847062
  F           11.645599       12.064161       13.218472
  F           13.250932       10.645603       13.510820
  Li          12.345569       16.284762       17.784254
  P           11.059637       15.070836       16.017119
  F           10.262759       15.182773       14.657393
  F           10.009010       13.963405       16.424770
  F           12.219336       14.818235       14.974195
  F           10.018619       16.206772       16.366878
  F           11.852303       14.258265       17.116123
  F           12.032802       16.270995       16.347225
  Li          19.644838       14.432129       13.226539
  P           19.529481       15.118454       15.627716
  F           20.054622       14.865139       17.096205
  F           18.132054       15.440053       16.291172
  F           20.757389       16.111534       15.677027
  F           19.262407       13.569010       15.783589
  F           18.838452       16.006157       14.518273
  F           20.431553       14.545352       14.464006
  Li          11.648012        8.589365       21.799625
  P            9.609205        8.531857       20.353955
  F            8.497299        7.633506       19.680879
  F            9.542380        9.416949       19.046841
  F            8.492920        8.557586       21.471830
  F           10.496040        7.462627       19.601181
  F           10.174761        9.914907       20.867493
  F           10.380288        7.880201       21.569347
  Li          10.204727        5.176658        7.497547
  P           10.252907        5.068481        9.994740
  F            9.409138        4.926609       11.323020
  F           11.183049        6.051415       10.810262
  F           10.272125        3.500721       10.190084
  F            9.185294        6.217066        9.801465
  F           11.601539        4.996659        9.174721
  F            9.539400        4.587716        8.669533
  Li          11.606853        8.376229       12.239976
  P            9.822681        9.256964       13.753593
  F            8.309351        9.164568       14.198225
  F            9.696628       10.811706       14.005165
  F            9.923031        8.198747       14.922570
  F            9.087077        9.408318       12.363492
  F           11.329512        9.673365       13.982652
  F           10.392411        8.002315       12.980505
  Li           7.382840       21.840801        8.799635
  P            9.638868       20.817494        9.136055
  F           10.488537       19.724223        9.897122
  F           10.916813       21.740334        9.243865
  F            9.531580       19.606040        8.127457
  F            9.266576       21.134030       10.638587
  F            9.403329       21.839831        7.954637
  F            8.076837       20.581465        9.108673
  Li           3.722641       10.544437       10.542795
  P            6.035998        9.754946       11.067277
  F            6.947461        8.533788       11.484901
  F            6.990017       10.642454       11.960909
  F            6.452694        9.199286        9.648120
  F            5.283269        9.240402       12.357642
  F            5.812379       11.193617       10.453584
  F            4.625394        9.386434       10.458347
  Li           9.106438        3.809190       15.809677
  P            6.620695        3.787546       16.075408
  F            5.391545        4.161258       16.995153
  F            5.793237        2.506272       15.663037
  F            6.286607        5.238174       15.545821
  F            7.036864        3.098176       17.434810
  F            7.269745        3.414161       14.684107
  F            7.971767        4.544598       16.388261
  Li          21.544048       11.214947       21.534019
  P           20.689474       13.389053       20.643534
  F           19.587170       14.113586       19.773832
  F           21.700203       14.460942       20.072674
  F           19.612378       13.721903       21.750546
  F           20.776947       12.568708       19.296024
  F           21.829773       13.376775       21.737136
  F           20.321802       11.940400       21.156002
