         496
  Built with Packmol                                             
  Zn           7.588184        7.588184        5.344736
  Zn          18.277656       18.277656       20.521104
  Zn          18.277656       18.277656        5.344736
  Zn           7.588184        7.588184       20.521104
  Zn          18.277656        7.588184       20.521104
  Zn           7.588184       18.277656        5.344736
  Zn           7.588184       18.277656       20.521104
  Zn          18.277656        7.588184        5.344736
  Zn           5.344736        7.588184        7.588184
  Zn          20.521104       18.277656       18.277656
  Zn           5.344736       18.277656       18.277656
  Zn          20.521104        7.588184        7.588184
  Zn          20.521104       18.277656        7.588184
  Zn           5.344736        7.588184       18.277656
  Zn          20.521104        7.588184       18.277656
  Zn           5.344736       18.277656        7.588184
  Zn           7.588184        5.344736        7.588184
  Zn          18.277656       20.521104       18.277656
  Zn          18.277656        5.344736       18.277656
  Zn           7.588184       20.521104        7.588184
  Zn           7.588184       20.521104       18.277656
  Zn          18.277656        5.344736        7.588184
  Zn          18.277656       20.521104        7.588184
  Zn           7.588184        5.344736       18.277656
  Zn           5.344736       20.521104       20.521104
  Zn          20.521104        5.344736        5.344736
  Zn           5.344736        5.344736        5.344736
  Zn          20.521104       20.521104       20.521104
  Zn          20.521104        5.344736       20.521104
  Zn           5.344736       20.521104        5.344736
  Zn          20.521104       20.521104        5.344736
  Zn           5.344736        5.344736       20.521104
  O            6.466460        6.466460        6.466460
  O           19.399380       19.399380       19.399380
  O           19.399380       19.399380        6.466460
  O            6.466460        6.466460       19.399380
  O           19.399380        6.466460       19.399380
  O            6.466460       19.399380        6.466460
  O            6.466460       19.399380       19.399380
  O           19.399380        6.466460        6.466460
  O            7.269387        9.475899        5.663533
  O           18.596453       16.389941       20.202307
  O           18.596453       16.389941        5.663533
  O            7.269387        9.475899       20.202307
  O           18.596453        9.475899       20.202307
  O            7.269387       16.389941        5.663533
  O            7.269387       16.389941       20.202307
  O           18.596453        9.475899        5.663533
  O            5.663533        7.269387        9.475899
  O           20.202307       18.596453       16.389941
  O            5.663533       18.596453       16.389941
  O           20.202307        7.269387        9.475899
  O           20.202307       18.596453        9.475899
  O            5.663533        7.269387       16.389941
  O           20.202307        7.269387       16.389941
  O            5.663533       18.596453        9.475899
  O            9.475899        5.663533        7.269387
  O           16.389941       20.202307       18.596453
  O           16.389941        5.663533       18.596453
  O            9.475899       20.202307        7.269387
  O            9.475899       20.202307       18.596453
  O           16.389941        5.663533        7.269387
  O           16.389941       20.202307        7.269387
  O            9.475899        5.663533       18.596453
  O            9.475899        7.269387       20.202307
  O           16.389941       18.596453        5.663533
  O           16.389941       18.596453       20.202307
  O            9.475899        7.269387        5.663533
  O            9.475899       18.596453        5.663533
  O           16.389941        7.269387       20.202307
  O           16.389941        7.269387        5.663533
  O            9.475899       18.596453       20.202307
  O            7.269387        5.663533       16.389941
  O           18.596453       20.202307        9.475899
  O           18.596453        5.663533        9.475899
  O            7.269387       20.202307       16.389941
  O           18.596453       20.202307       16.389941
  O            7.269387        5.663533        9.475899
  O            7.269387       20.202307        9.475899
  O           18.596453        5.663533       16.389941
  O            5.663533        9.475899       18.596453
  O           20.202307       16.389941        7.269387
  O            5.663533       16.389941        7.269387
  O           20.202307        9.475899       18.596453
  O           20.202307        9.475899        7.269387
  O            5.663533       16.389941       18.596453
  O           20.202307       16.389941       18.596453
  O            5.663533        9.475899        7.269387
  O            7.269387       22.408819       18.596453
  O           18.596453        3.457021        7.269387
  O           18.596453        3.457021       18.596453
  O            7.269387       22.408819        7.269387
  O           18.596453       22.408819        7.269387
  O            7.269387        3.457021       18.596453
  O            7.269387        3.457021        7.269387
  O           18.596453       22.408819       18.596453
  O            5.663533       20.202307       22.408819
  O           20.202307        5.663533        3.457021
  O            5.663533        5.663533        3.457021
  O           20.202307       20.202307       22.408819
  O           20.202307        5.663533       22.408819
  O            5.663533       20.202307        3.457021
  O           20.202307       20.202307        3.457021
  O            5.663533        5.663533       22.408819
  O            7.269387       18.596453        3.457021
  O           18.596453        7.269387       22.408819
  O           18.596453       18.596453       22.408819
  O            7.269387        7.269387        3.457021
  O           18.596453        7.269387        3.457021
  O            7.269387       18.596453       22.408819
  O            7.269387        7.269387       22.408819
  O           18.596453       18.596453        3.457021
  O            5.663533       22.408819        5.663533
  O           20.202307        3.457021       20.202307
  O            5.663533        3.457021       20.202307
  O           20.202307       22.408819        5.663533
  O           20.202307       22.408819       20.202307
  O            5.663533        3.457021        5.663533
  O           20.202307        3.457021        5.663533
  O            5.663533       22.408819       20.202307
  O           22.408819        5.663533       20.202307
  O            3.457021       20.202307        5.663533
  O            3.457021        5.663533        5.663533
  O           22.408819       20.202307       20.202307
  O           22.408819       20.202307        5.663533
  O            3.457021        5.663533       20.202307
  O            3.457021       20.202307       20.202307
  O           22.408819        5.663533        5.663533
  O           22.408819        7.269387        7.269387
  O            3.457021       18.596453       18.596453
  O            3.457021       18.596453        7.269387
  O           22.408819        7.269387       18.596453
  O           22.408819       18.596453       18.596453
  O            3.457021        7.269387        7.269387
  O            3.457021        7.269387       18.596453
  O           22.408819       18.596453        7.269387
  C            6.466460       10.051905        6.466460
  C           19.399380       15.813935       19.399380
  C           19.399380       15.813935        6.466460
  C            6.466460       10.051905       19.399380
  C           19.399380       10.051905       19.399380
  C            6.466460       15.813935        6.466460
  C            6.466460       15.813935       19.399380
  C           19.399380       10.051905        6.466460
  C            6.466460        6.466460       10.051905
  C           19.399380       19.399380       15.813935
  C            6.466460       19.399380       15.813935
  C           19.399380        6.466460       10.051905
  C           19.399380       19.399380       10.051905
  C            6.466460        6.466460       15.813935
  C           19.399380        6.466460       15.813935
  C            6.466460       19.399380       10.051905
  C           10.051905        6.466460        6.466460
  C           15.813935       19.399380       19.399380
  C           15.813935        6.466460       19.399380
  C           10.051905       19.399380        6.466460
  C           10.051905       19.399380       19.399380
  C           15.813935        6.466460        6.466460
  C           15.813935       19.399380        6.466460
  C           10.051905        6.466460       19.399380
  C            6.466460       22.984825       19.399380
  C           19.399380        2.881015        6.466460
  C           19.399380        2.881015       19.399380
  C            6.466460       22.984825        6.466460
  C           19.399380       22.984825        6.466460
  C            6.466460        2.881015       19.399380
  C            6.466460        2.881015        6.466460
  C           19.399380       22.984825       19.399380
  C            6.466460       19.399380       22.984825
  C           19.399380        6.466460        2.881015
  C            6.466460        6.466460        2.881015
  C           19.399380       19.399380       22.984825
  C           19.399380        6.466460       22.984825
  C            6.466460       19.399380        2.881015
  C           19.399380       19.399380        2.881015
  C            6.466460        6.466460       22.984825
  C           22.984825        6.466460       19.399380
  C            2.881015       19.399380        6.466460
  C            2.881015        6.466460        6.466460
  C           22.984825       19.399380       19.399380
  C           22.984825       19.399380        6.466460
  C            2.881015        6.466460       19.399380
  C            2.881015       19.399380       19.399380
  C           22.984825        6.466460        6.466460
  C            6.466460       11.541131        6.466460
  C           19.399380       14.324709       19.399380
  C           19.399380       14.324709        6.466460
  C            6.466460       11.541131       19.399380
  C           19.399380       11.541131       19.399380
  C            6.466460       14.324709        6.466460
  C            6.466460       14.324709       19.399380
  C           19.399380       11.541131        6.466460
  C            6.466460        6.466460       11.541131
  C           19.399380       19.399380       14.324709
  C            6.466460       19.399380       14.324709
  C           19.399380        6.466460       11.541131
  C           19.399380       19.399380       11.541131
  C            6.466460        6.466460       14.324709
  C           19.399380        6.466460       14.324709
  C            6.466460       19.399380       11.541131
  C           11.541131        6.466460        6.466460
  C           14.324709       19.399380       19.399380
  C           14.324709        6.466460       19.399380
  C           11.541131       19.399380        6.466460
  C           11.541131       19.399380       19.399380
  C           14.324709        6.466460        6.466460
  C           14.324709       19.399380        6.466460
  C           11.541131        6.466460       19.399380
  C            6.466460       24.474051       19.399380
  C           19.399380        1.391789        6.466460
  C           19.399380        1.391789       19.399380
  C            6.466460       24.474051        6.466460
  C           19.399380       24.474051        6.466460
  C            6.466460        1.391789       19.399380
  C            6.466460        1.391789        6.466460
  C           19.399380       24.474051       19.399380
  C            6.466460       19.399380       24.474051
  C           19.399380        6.466460        1.391789
  C            6.466460        6.466460        1.391789
  C           19.399380       19.399380       24.474051
  C           19.399380        6.466460       24.474051
  C            6.466460       19.399380        1.391789
  C           19.399380       19.399380        1.391789
  C            6.466460        6.466460       24.474051
  C           24.474051        6.466460       19.399380
  C            1.391789       19.399380        6.466460
  C            1.391789        6.466460        6.466460
  C           24.474051       19.399380       19.399380
  C           24.474051       19.399380        6.466460
  C            1.391789        6.466460       19.399380
  C            1.391789       19.399380       19.399380
  C           24.474051        6.466460        6.466460
  C            7.324352       12.239172        5.608568
  C           18.541488       13.626668       20.257272
  C           18.541488       13.626668        5.608568
  C            7.324352       12.239172       20.257272
  C           18.541488       12.239172       20.257272
  C            7.324352       13.626668        5.608568
  C            7.324352       13.626668       20.257272
  C           18.541488       12.239172        5.608568
  C            5.608568        7.324352       12.239172
  C           20.257272       18.541488       13.626668
  C            5.608568       18.541488       13.626668
  C           20.257272        7.324352       12.239172
  C           20.257272       18.541488       12.239172
  C            5.608568        7.324352       13.626668
  C           20.257272        7.324352       13.626668
  C            5.608568       18.541488       12.239172
  C           12.239172        5.608568        7.324352
  C           13.626668       20.257272       18.541488
  C           13.626668        5.608568       18.541488
  C           12.239172       20.257272        7.324352
  C           12.239172       20.257272       18.541488
  C           13.626668        5.608568        7.324352
  C           13.626668       20.257272        7.324352
  C           12.239172        5.608568       18.541488
  C           12.239172        7.324352       20.257272
  C           13.626668       18.541488        5.608568
  C           13.626668       18.541488       20.257272
  C           12.239172        7.324352        5.608568
  C           12.239172       18.541488        5.608568
  C           13.626668        7.324352       20.257272
  C           13.626668        7.324352        5.608568
  C           12.239172       18.541488       20.257272
  C            7.324352        5.608568       13.626668
  C           18.541488       20.257272       12.239172
  C           18.541488        5.608568       12.239172
  C            7.324352       20.257272       13.626668
  C           18.541488       20.257272       13.626668
  C            7.324352        5.608568       12.239172
  C            7.324352       20.257272       12.239172
  C           18.541488        5.608568       13.626668
  C            5.608568       12.239172       18.541488
  C           20.257272       13.626668        7.324352
  C            5.608568       13.626668        7.324352
  C           20.257272       12.239172       18.541488
  C           20.257272       12.239172        7.324352
  C            5.608568       13.626668       18.541488
  C           20.257272       13.626668       18.541488
  C            5.608568       12.239172        7.324352
  C            7.324352       25.172092       18.541488
  C           18.541488        0.693748        7.324352
  C           18.541488        0.693748       18.541488
  C            7.324352       25.172092        7.324352
  C           18.541488       25.172092        7.324352
  C            7.324352        0.693748       18.541488
  C            7.324352        0.693748        7.324352
  C           18.541488       25.172092       18.541488
  C            5.608568       20.257272       25.172092
  C           20.257272        5.608568        0.693748
  C            5.608568        5.608568        0.693748
  C           20.257272       20.257272       25.172092
  C           20.257272        5.608568       25.172092
  C            5.608568       20.257272        0.693748
  C           20.257272       20.257272        0.693748
  C            5.608568        5.608568       25.172092
  C            7.324352       18.541488        0.693748
  C           18.541488        7.324352       25.172092
  C           18.541488       18.541488       25.172092
  C            7.324352        7.324352        0.693748
  C           18.541488        7.324352        0.693748
  C            7.324352       18.541488       25.172092
  C            7.324352        7.324352       25.172092
  C           18.541488       18.541488        0.693748
  C            5.608568       25.172092        5.608568
  C           20.257272        0.693748       20.257272
  C            5.608568        0.693748       20.257272
  C           20.257272       25.172092        5.608568
  C           20.257272       25.172092       20.257272
  C            5.608568        0.693748        5.608568
  C           20.257272        0.693748        5.608568
  C            5.608568       25.172092       20.257272
  C           25.172092        5.608568       20.257272
  C            0.693748       20.257272        5.608568
  C            0.693748        5.608568        5.608568
  C           25.172092       20.257272       20.257272
  C           25.172092       20.257272        5.608568
  C            0.693748        5.608568       20.257272
  C            0.693748       20.257272       20.257272
  C           25.172092        5.608568        5.608568
  C           25.172092        7.324352        7.324352
  C            0.693748       18.541488       18.541488
  C            0.693748       18.541488        7.324352
  C           25.172092        7.324352       18.541488
  C           25.172092       18.541488       18.541488
  C            0.693748        7.324352        7.324352
  C            0.693748        7.324352       18.541488
  C           25.172092       18.541488        7.324352
  H            7.984526       11.670408        4.948394
  H           17.881314       14.195432       20.917446
  H           17.881314       14.195432        4.948394
  H            7.984526       11.670408       20.917446
  H           17.881314       11.670408       20.917446
  H            7.984526       14.195432        4.948394
  H            7.984526       14.195432       20.917446
  H           17.881314       11.670408        4.948394
  H            4.948394        7.984526       11.670408
  H           20.917446       17.881314       14.195432
  H            4.948394       17.881314       14.195432
  H           20.917446        7.984526       11.670408
  H           20.917446       17.881314       11.670408
  H            4.948394        7.984526       14.195432
  H           20.917446        7.984526       14.195432
  H            4.948394       17.881314       11.670408
  H           11.670408        4.948394        7.984526
  H           14.195432       20.917446       17.881314
  H           14.195432        4.948394       17.881314
  H           11.670408       20.917446        7.984526
  H           11.670408       20.917446       17.881314
  H           14.195432        4.948394        7.984526
  H           14.195432       20.917446        7.984526
  H           11.670408        4.948394       17.881314
  H           11.670408        7.984526       20.917446
  H           14.195432       17.881314        4.948394
  H           14.195432       17.881314       20.917446
  H           11.670408        7.984526        4.948394
  H           11.670408       17.881314        4.948394
  H           14.195432        7.984526       20.917446
  H           14.195432        7.984526        4.948394
  H           11.670408       17.881314       20.917446
  H            7.984526        4.948394       14.195432
  H           17.881314       20.917446       11.670408
  H           17.881314        4.948394       11.670408
  H            7.984526       20.917446       14.195432
  H           17.881314       20.917446       14.195432
  H            7.984526        4.948394       11.670408
  H            7.984526       20.917446       11.670408
  H           17.881314        4.948394       14.195432
  H            4.948394       11.670408       17.881314
  H           20.917446       14.195432        7.984526
  H            4.948394       14.195432        7.984526
  H           20.917446       11.670408       17.881314
  H           20.917446       11.670408        7.984526
  H            4.948394       14.195432       17.881314
  H           20.917446       14.195432       17.881314
  H            4.948394       11.670408        7.984526
  H            7.984526       24.603328       17.881314
  H           17.881314        1.262512        7.984526
  H           17.881314        1.262512       17.881314
  H            7.984526       24.603328        7.984526
  H           17.881314       24.603328        7.984526
  H            7.984526        1.262512       17.881314
  H            7.984526        1.262512        7.984526
  H           17.881314       24.603328       17.881314
  H            4.948394       20.917446       24.603328
  H           20.917446        4.948394        1.262512
  H            4.948394        4.948394        1.262512
  H           20.917446       20.917446       24.603328
  H           20.917446        4.948394       24.603328
  H            4.948394       20.917446        1.262512
  H           20.917446       20.917446        1.262512
  H            4.948394        4.948394       24.603328
  H            7.984526       17.881314        1.262512
  H           17.881314        7.984526       24.603328
  H           17.881314       17.881314       24.603328
  H            7.984526        7.984526        1.262512
  H           17.881314        7.984526        1.262512
  H            7.984526       17.881314       24.603328
  H            7.984526        7.984526       24.603328
  H           17.881314       17.881314        1.262512
  H            4.948394       24.603328        4.948394
  H           20.917446        1.262512       20.917446
  H            4.948394        1.262512       20.917446
  H           20.917446       24.603328        4.948394
  H           20.917446       24.603328       20.917446
  H            4.948394        1.262512        4.948394
  H           20.917446        1.262512        4.948394
  H            4.948394       24.603328       20.917446
  H           24.603328        4.948394       20.917446
  H            1.262512       20.917446        4.948394
  H            1.262512        4.948394        4.948394
  H           24.603328       20.917446       20.917446
  H           24.603328       20.917446        4.948394
  H            1.262512        4.948394       20.917446
  H            1.262512       20.917446       20.917446
  H           24.603328        4.948394        4.948394
  H           24.603328        7.984526        7.984526
  H            1.262512       17.881314       17.881314
  H            1.262512       17.881314        7.984526
  H           24.603328        7.984526       17.881314
  H           24.603328       17.881314       17.881314
  H            1.262512        7.984526        7.984526
  H            1.262512        7.984526       17.881314
  H           24.603328       17.881314        7.984526
  O            3.135668       12.772053       16.142495
  O            2.505326       10.789230       17.326690
  C            2.820497       11.780642       16.734593
  O            8.008311       12.020979       15.494005
  O            8.390109       14.384333       15.498961
  C            8.199210       13.202656       15.496483
  O           14.436529       13.718701        8.148850
  O           16.451334       12.432891        8.284832
  C           15.443932       13.075796        8.216841
  O           11.343424        9.630162        9.451378
  O           13.679587        9.737314        9.963331
  C           12.511505        9.683738        9.707355
  O            2.671280       10.071404        3.690496
  O            3.347484        9.527475        5.921667
  C            3.009382        9.799440        4.806081
  O           16.235712       12.745827       12.816441
  O           17.195999       14.801398       12.052430
  C           16.715856       13.773613       12.434436
  O           10.802921       16.287633       12.500834
  O           10.788918       18.647995       12.900499
  C           10.795919       17.467814       12.700667
  O           13.489566       12.327258        4.086183
  O           14.527165       14.481917        3.976320
  C           14.008366       13.404588        4.031252
  O           15.178883        5.928377       10.201776
  O           15.063196        3.540319       10.324375
  C           15.121040        4.734348       10.263075
  O           12.233960        6.161378       13.157638
  O           12.653278        6.117641       10.801053
  C           12.443619        6.139510       11.979346
  O           11.166190       16.644205        8.580122
  O            8.952225       15.935859        9.152696
  C           10.059208       16.290032        8.866409
  O           10.625388       13.279343       14.644284
  O           11.824980       12.690728       16.630674
  C           11.225184       12.985036       15.637479
  O            3.532156       12.920593        4.004943
  O            5.314616       13.461377        2.501073
  C            4.423386       13.190985        3.253008
  O           12.324354       12.488467       11.678378
  O           12.695609       10.259945       12.470273
  C           12.509981       11.374206       12.074325
  O            2.843495       21.060625        3.102205
  O            2.629659       18.686503        2.880719
  C            2.736577       19.873564        2.991462
  O           12.415615       10.877257       21.376885
  O           11.935226       13.144766       20.777831
  C           12.175420       12.011011       21.077358
  O           14.506527       10.081471       18.543243
  O           15.046838       10.322437       20.862992
  C           14.776683       10.201954       19.703117
  O           16.936043       15.306076       15.216148
  O           14.606260       15.741088       14.878339
  C           15.771151       15.523582       15.047243
  O           23.394787        2.529250       23.131737
  O           21.993078        4.128842       22.032759
  C           22.693932        3.329046       22.582248
  O            9.272365        7.764934       13.214813
  O            7.323427        9.111011       13.562595
  C            8.297896        8.437973       13.388704
  O           14.386039       23.364569        4.846638
  O           12.334317       23.190612        3.625405
  C           13.360178       23.277590        4.236022
  O           12.210338       15.016601       18.604333
  O           11.157199       15.836880       16.617054
  C           11.683768       15.426740       17.610694
  O            5.040559       13.661427       14.544555
  O            5.250833       15.819393       15.559543
  C            5.145696       14.740410       15.052049
  O            4.563291       13.412298       11.147381
  O            5.320736       15.413119       10.073031
  C            4.942014       14.412708       10.610206
