         784
  Built with Packmol                                             
  O           21.808251        2.536749        0.000000
  O           21.808251        3.549501        6.086250
  O           20.795499        3.549501       12.172500
  O           20.795499        2.536749       18.258750
  O            0.000000       21.808251        2.536749
  O            6.086250       21.808251        3.549501
  O           12.172500       20.795499        3.549501
  O           18.258750       20.795499        2.536749
  O            2.536749        6.086250        8.622999
  O            2.536749       12.172500        9.635751
  O            3.549501       18.258750        9.635751
  O            3.549501        0.000000        8.622999
  O            2.536749       21.808251        0.000000
  O            2.536749       20.795499       18.258750
  O            3.549501       20.795499       12.172500
  O            3.549501       21.808251        6.086250
  O            0.000000        2.536749       21.808251
  O           18.258750        2.536749       20.795499
  O           12.172500        3.549501       20.795499
  O            6.086250        3.549501       21.808251
  O           21.808251       18.258750       15.722001
  O           21.808251       12.172500       14.709249
  O           20.795499        6.086250       14.709249
  O           20.795499        0.000000       15.722001
  O           21.808251       14.709249       12.172500
  O           21.808251       15.722001       18.258750
  O           20.795499       15.722001        0.000000
  O           20.795499       14.709249        6.086250
  O            0.000000        9.635751       14.709249
  O            6.086250        9.635751       15.722001
  O           12.172500        8.622999       15.722001
  O           18.258750        8.622999       14.709249
  O            2.536749       18.258750       20.795499
  O            2.536749        0.000000       21.808251
  O            3.549501        6.086250       21.808251
  O            3.549501       12.172500       20.795499
  O            2.536749        9.635751       12.172500
  O            2.536749        8.622999        6.086250
  O            3.549501        8.622999        0.000000
  O            3.549501        9.635751       18.258750
  O            0.000000       14.709249        9.635751
  O           18.258750       14.709249        8.622999
  O           12.172500       15.722001        8.622999
  O            6.086250       15.722001        9.635751
  O           21.808251        6.086250        3.549501
  O           21.808251        0.000000        2.536749
  O           20.795499       18.258750        2.536749
  O           20.795499       12.172500        3.549501
  O            9.635751        2.536749       12.172500
  O            9.635751        3.549501       18.258750
  O            8.622999        3.549501        0.000000
  O            8.622999        2.536749        6.086250
  O           12.172500       21.808251       14.709249
  O           18.258750       21.808251       15.722001
  O            0.000000       20.795499       15.722001
  O            6.086250       20.795499       14.709249
  O           14.709249        6.086250       20.795499
  O           14.709249       12.172500       21.808251
  O           15.722001       18.258750       21.808251
  O           15.722001        0.000000       20.795499
  O           14.709249       21.808251       12.172500
  O           14.709249       20.795499        6.086250
  O           15.722001       20.795499        0.000000
  O           15.722001       21.808251       18.258750
  O           12.172500        2.536749        9.635751
  O            6.086250        2.536749        8.622999
  O            0.000000        3.549501        8.622999
  O           18.258750        3.549501        9.635751
  O            9.635751       18.258750        3.549501
  O            9.635751       12.172500        2.536749
  O            8.622999        6.086250        2.536749
  O            8.622999        0.000000        3.549501
  O            9.635751       14.709249        0.000000
  O            9.635751       15.722001        6.086250
  O            8.622999       15.722001       12.172500
  O            8.622999       14.709249       18.258750
  O           12.172500        9.635751        2.536749
  O           18.258750        9.635751        3.549501
  O            0.000000        8.622999        3.549501
  O            6.086250        8.622999        2.536749
  O           14.709249       18.258750        8.622999
  O           14.709249        0.000000        9.635751
  O           15.722001        6.086250        9.635751
  O           15.722001       12.172500        8.622999
  O           14.709249        9.635751        0.000000
  O           14.709249        8.622999       18.258750
  O           15.722001        8.622999       12.172500
  O           15.722001        9.635751        6.086250
  O           12.172500       14.709249       21.808251
  O            6.086250       14.709249       20.795499
  O            0.000000       15.722001       20.795499
  O           18.258750       15.722001       21.808251
  O            9.635751        6.086250       15.722001
  O            9.635751        0.000000       14.709249
  O            8.622999       18.258750       14.709249
  O            8.622999       12.172500       15.722001
  O           23.539180        1.855089        1.855089
  O           22.489911        5.280430        7.941339
  O           19.064570        4.231161       14.027589
  O           20.113839        0.805820       20.113839
  O           23.539180        4.231161        4.231161
  O           22.489911        0.805820       22.489911
  O           19.064570        1.855089       16.403661
  O           20.113839        5.280430       10.317411
  O            1.855089       23.539180        1.855089
  O            7.941339       22.489911        5.280430
  O           14.027589       19.064570        4.231161
  O           20.113839       20.113839        0.805820
  O            4.231161       23.539180        4.231161
  O           22.489911       22.489911        0.805820
  O           16.403661       19.064570        1.855089
  O           10.317411       20.113839        5.280430
  O            0.805820        7.941339        7.941339
  O            1.855089       14.027589       11.366680
  O            5.280430       20.113839       10.317411
  O            4.231161        1.855089        6.892069
  O            0.805820       10.317411       10.317411
  O            1.855089        4.231161        6.892069
  O            5.280430       22.489911        7.941339
  O            4.231161       16.403661       11.366680
  O            0.805820       22.489911       22.489911
  O            1.855089       19.064570       16.403661
  O            0.805820       20.113839       20.113839
  O            4.231161       19.064570       14.027589
  O           16.403661        1.855089       19.064570
  O           10.317411        5.280430       20.113839
  O            4.231161        4.231161       23.539180
  O            1.855089        1.855089       23.539180
  O            7.941339        5.280430       22.489911
  O           14.027589        4.231161       19.064570
  O           23.539180       16.403661       16.403661
  O           22.489911       10.317411       12.978319
  O           20.113839       22.489911       17.452930
  O           23.539180       14.027589       14.027589
  O           22.489911       20.113839       17.452930
  O           20.113839        7.941339       12.978319
  O           22.489911       17.452930       20.113839
  O           19.064570       16.403661        1.855089
  O           20.113839       12.978319        7.941339
  O           22.489911       12.978319       10.317411
  O           19.064570       14.027589        4.231161
  O           20.113839       17.452930       22.489911
  O            1.855089       11.366680       14.027589
  O            7.941339       10.317411       17.452930
  O           14.027589        6.892069       16.403661
  O            4.231161       11.366680       16.403661
  O           16.403661        6.892069       14.027589
  O           10.317411        7.941339       17.452930
  O            5.280430        7.941339       22.489911
  O            4.231161       14.027589       19.064570
  O            1.855089       16.403661       19.064570
  O            5.280430       10.317411       20.113839
  O            1.855089        6.892069        4.231161
  O            4.231161        6.892069        1.855089
  O           16.403661       14.027589        6.892069
  O           10.317411       17.452930        7.941339
  O            7.941339       17.452930       10.317411
  O           14.027589       16.403661        6.892069
  O           20.113839       10.317411        5.280430
  O           22.489911        7.941339        5.280430
  O           11.366680        1.855089       14.027589
  O            6.892069        4.231161        1.855089
  O            7.941339        0.805820        7.941339
  O           11.366680        4.231161       16.403661
  O           10.317411        0.805820       10.317411
  O            6.892069        1.855089        4.231161
  O           14.027589       23.539180       14.027589
  O            7.941339       20.113839       12.978319
  O           16.403661       23.539180       16.403661
  O           10.317411       22.489911       12.978319
  O           12.978319        7.941339       20.113839
  O           14.027589       14.027589       23.539180
  O           17.452930       20.113839       22.489911
  O           12.978319       10.317411       22.489911
  O           17.452930       22.489911       20.113839
  O           16.403661       16.403661       23.539180
  O           12.978319       22.489911       10.317411
  O           12.978319       20.113839        7.941339
  O           16.403661        4.231161       11.366680
  O           14.027589        1.855089       11.366680
  O           11.366680       16.403661        4.231161
  O           10.317411       10.317411        0.805820
  O           11.366680       14.027589        1.855089
  O            7.941339        7.941339        0.805820
  O            6.892069       16.403661       14.027589
  O            7.941339       12.978319       20.113839
  O           10.317411       12.978319       22.489911
  O            6.892069       14.027589       16.403661
  O           14.027589       11.366680        1.855089
  O           16.403661       11.366680        4.231161
  O           17.452930        7.941339       10.317411
  O           17.452930       10.317411        7.941339
  O           24.262227        3.478900       24.262227
  O           20.866099        6.003477        6.003477
  O           18.341523        2.607349       12.089727
  O           21.737651        0.082773       18.175977
  O           24.262227        2.607349        6.169023
  O           20.866099        0.082773        0.082773
  O           18.341523        3.478900       18.341523
  O           21.737651        6.003477       12.255273
  O           24.262227       24.262227        3.478900
  O            6.003477       20.866099        6.003477
  O           12.089727       18.341523        2.607349
  O           18.175977       21.737651        0.082773
  O            6.169023       24.262227        2.607349
  O            0.082773       20.866099        0.082773
  O           18.341523       18.341523        3.478900
  O           12.255273       21.737651        6.003477
  O            0.082773        6.003477        9.565150
  O            3.478900       12.089727       12.089727
  O            6.003477       18.175977        8.693599
  O            2.607349       24.262227        6.169023
  O            0.082773       12.255273        8.693599
  O            3.478900        6.169023        6.169023
  O            6.003477        0.082773        9.565150
  O            2.607349       18.341523       12.089727
  O            3.478900       18.341523       18.341523
  O            6.003477       21.737651       12.255273
  O            0.082773       21.737651       18.175977
  O            3.478900       24.262227       24.262227
  O            0.082773        0.082773       20.866099
  O           12.255273        6.003477       21.737651
  O            6.169023        2.607349       24.262227
  O           18.175977        0.082773       21.737651
  O            6.003477        6.003477       20.866099
  O           12.089727        2.607349       18.341523
  O           24.262227       18.341523       14.779849
  O           20.866099       12.255273       12.255273
  O           18.341523        6.169023       15.651400
  O           24.262227       12.089727       15.651400
  O           20.866099       18.175977       18.175977
  O           18.341523       24.262227       14.779849
  O           24.262227       15.651400       12.089727
  O           18.341523       14.779849       24.262227
  O           21.737651       12.255273        6.003477
  O           24.262227       14.779849       18.341523
  O           18.341523       15.651400        6.169023
  O           21.737651       18.175977        0.082773
  O            6.003477        8.693599       18.175977
  O           12.089727        6.169023       14.779849
  O           18.175977        9.565150       12.255273
  O            6.169023       12.089727       14.779849
  O            0.082773        8.693599       12.255273
  O           12.255273        9.565150       18.175977
  O            0.082773       18.175977       21.737651
  O            2.607349       12.089727       18.341523
  O            6.003477       12.255273       21.737651
  O            2.607349        6.169023       24.262227
  O            6.003477        9.565150        0.082773
  O            0.082773        9.565150        6.003477
  O           12.255273       18.175977        9.565150
  O            6.169023       14.779849       12.089727
  O           18.175977       12.255273        9.565150
  O           12.089727       14.779849        6.169023
  O           24.262227        6.169023        2.607349
  O           18.341523       12.089727        2.607349
  O           12.089727        3.478900       12.089727
  O            8.693599        6.003477       18.175977
  O            9.565150        0.082773        6.003477
  O            8.693599        0.082773       12.255273
  O            6.169023        3.478900        6.169023
  O            9.565150        6.003477        0.082773
  O           12.089727       24.262227       15.651400
  O           18.175977       20.866099       18.175977
  O           12.255273       20.866099       12.255273
  O            6.169023       18.341523       15.651400
  O           15.651400       12.089727       24.262227
  O           18.175977       18.175977       20.866099
  O           14.779849       24.262227       18.341523
  O           12.255273       12.255273       20.866099
  O           15.651400        6.169023       18.341523
  O           14.779849       18.341523       24.262227
  O           15.651400       18.341523        6.169023
  O           15.651400       24.262227       12.089727
  O           12.255273        0.082773        8.693599
  O           18.175977        6.003477        8.693599
  O            8.693599       12.255273        0.082773
  O            6.169023        6.169023        3.478900
  O           12.089727       12.089727        3.478900
  O            8.693599       18.175977        6.003477
  O           12.089727       15.651400       24.262227
  O            9.565150       12.255273       18.175977
  O            6.169023       15.651400       18.341523
  O            9.565150       18.175977       12.255273
  O           18.175977        8.693599        6.003477
  O           12.255273        8.693599        0.082773
  O           14.779849       12.089727        6.169023
  O           14.779849        6.169023       12.089727
  O           22.599463        4.309065        1.777185
  O           20.035935        4.340714        7.863435
  O           20.004286        1.777185       13.949685
  O           22.567815        1.745536       20.035935
  O           22.599463        1.777185        4.309065
  O           20.035935        1.745536       22.567815
  O           20.004286        4.309065       16.481565
  O           22.567815        4.340714       10.395315
  O            1.777185       22.599463        4.309065
  O            7.863435       20.035935        4.340714
  O           13.949685       20.004286        1.777185
  O           20.035935       22.567815        1.745536
  O            4.309065       22.599463        1.777185
  O           22.567815       20.035935        1.745536
  O           16.481565       20.004286        4.309065
  O           10.395315       22.567815        4.340714
  O            1.745536        7.863435       10.395315
  O            4.309065       13.949685       10.426964
  O            4.340714       20.035935        7.863435
  O            1.777185        1.777185        7.831786
  O            1.745536       10.395315        7.863435
  O            4.309065        4.309065        7.831786
  O            4.340714       22.567815       10.395315
  O            1.777185       16.481565       10.426964
  O            1.745536       20.035935       22.567815
  O            4.309065       20.004286       16.481565
  O            1.745536       22.567815       20.035935
  O            1.777185       20.004286       13.949685
  O           16.481565        4.309065       20.004286
  O           10.395315        4.340714       22.567815
  O            4.309065        1.777185       22.599463
  O            1.777185        4.309065       22.599463
  O            7.863435        4.340714       20.035935
  O           13.949685        1.777185       20.004286
  O           22.599463       16.481565       13.949685
  O           20.035935       10.395315       13.918036
  O           22.567815       22.567815       16.513214
  O           22.599463       13.949685       16.481565
  O           20.035935       20.035935       16.513214
  O           22.567815        7.863435       13.918036
  O           20.035935       16.513214       20.035935
  O           20.004286       13.949685        1.777185
  O           22.567815       13.918036        7.863435
  O           20.035935       13.918036       10.395315
  O           20.004286       16.481565        4.309065
  O           22.567815       16.513214       22.567815
  O            1.777185       10.426964       16.481565
  O            7.863435        7.863435       16.513214
  O           13.949685        7.831786       13.949685
  O            4.309065       10.426964       13.949685
  O           16.481565        7.831786       16.481565
  O           10.395315       10.395315       16.513214
  O            4.340714        7.863435       20.035935
  O            1.777185       13.949685       20.004286
  O            4.309065       16.481565       20.004286
  O            4.340714       10.395315       22.567815
  O            4.309065        7.831786        4.309065
  O            1.777185        7.831786        1.777185
  O           16.481565       16.481565        7.831786
  O           10.395315       16.513214       10.395315
  O            7.863435       16.513214        7.863435
  O           13.949685       13.949685        7.831786
  O           22.567815       10.395315        4.340714
  O           20.035935        7.863435        4.340714
  O           10.426964        4.309065       13.949685
  O            7.831786        1.777185        1.777185
  O           10.395315        1.745536        7.863435
  O           10.426964        1.777185       16.481565
  O            7.863435        1.745536       10.395315
  O            7.831786        4.309065        4.309065
  O           13.949685       22.599463       16.481565
  O            7.863435       22.567815       13.918036
  O           16.481565       22.599463       13.949685
  O           10.395315       20.035935       13.918036
  O           13.918036        7.863435       22.567815
  O           16.481565       13.949685       22.599463
  O           16.513214       20.035935       20.035935
  O           13.918036       10.395315       20.035935
  O           16.513214       22.567815       22.567815
  O           13.949685       16.481565       22.599463
  O           13.918036       20.035935       10.395315
  O           13.918036       22.567815        7.863435
  O           16.481565        1.777185       10.426964
  O           13.949685        4.309065       10.426964
  O           10.426964       16.481565        1.777185
  O            7.863435       10.395315        1.745536
  O           10.426964       13.949685        4.309065
  O           10.395315        7.863435        1.745536
  O            7.831786       13.949685       13.949685
  O           10.395315       13.918036       20.035935
  O            7.863435       13.918036       22.567815
  O            7.831786       16.481565       16.481565
  O           13.949685       10.426964        4.309065
  O           16.481565       10.426964        1.777185
  O           16.513214        7.863435        7.863435
  O           16.513214       10.395315       10.395315
  Si          23.052280        3.045559        0.886158
  Si          21.299440        4.793530        6.972408
  Si          19.551469        3.040691       13.058658
  Si          21.304309        1.292720       19.144908
  Si          23.052280        3.040691        5.200092
  Si          21.299440        1.292720       23.458842
  Si          19.551469        3.045559       17.372592
  Si          21.304309        4.793530       11.286342
  Si           0.886158       23.052280        3.045559
  Si           6.972408       21.299440        4.793530
  Si          13.058658       19.551469        3.040691
  Si          19.144908       21.304309        1.292720
  Si           5.200092       23.052280        3.040691
  Si          23.458842       21.299440        1.292720
  Si          17.372592       19.551469        3.045559
  Si          11.286342       21.304309        4.793530
  Si           1.292720        6.972408        9.131809
  Si           3.045559       13.058658       10.879780
  Si           4.793530       19.144908        9.126940
  Si           3.040691        0.886158        7.378970
  Si           1.292720       11.286342        9.126940
  Si           3.045559        5.200092        7.378970
  Si           4.793530       23.458842        9.131809
  Si           3.040691       17.372592       10.879780
  Si           1.292720       21.299440       23.458842
  Si           3.045559       19.551469       17.372592
  Si           4.793530       21.304309       11.286342
  Si           3.040691       23.052280        5.200092
  Si           1.292720       21.304309       19.144908
  Si           3.045559       23.052280        0.886158
  Si           4.793530       21.299440        6.972408
  Si           3.040691       19.551469       13.058658
  Si          23.458842        1.292720       21.299440
  Si          17.372592        3.045559       19.551469
  Si          11.286342        4.793530       21.304309
  Si           5.200092        3.040691       23.052280
  Si          19.144908        1.292720       21.304309
  Si           0.886158        3.045559       23.052280
  Si           6.972408        4.793530       21.299440
  Si          13.058658        3.040691       19.551469
  Si          23.052280       17.372592       15.213190
  Si          21.299440       11.286342       13.465219
  Si          19.551469        5.200092       15.218059
  Si          21.304309       23.458842       16.966030
  Si          23.052280       13.058658       15.218059
  Si          21.299440       19.144908       16.966030
  Si          19.551469        0.886158       15.213190
  Si          21.304309        6.972408       13.465219
  Si          23.052280       15.218059       13.058658
  Si          21.299440       16.966030       19.144908
  Si          19.551469       15.213190        0.886158
  Si          21.304309       13.465219        6.972408
  Si          23.052280       15.213190       17.372592
  Si          21.299440       13.465219       11.286342
  Si          19.551469       15.218059        5.200092
  Si          21.304309       16.966030       23.458842
  Si           0.886158       10.879780       15.218059
  Si           6.972408        9.126940       16.966030
  Si          13.058658        7.378970       15.213190
  Si          19.144908        9.131809       13.465219
  Si           5.200092       10.879780       15.213190
  Si          23.458842        9.126940       13.465219
  Si          17.372592        7.378970       15.218059
  Si          11.286342        9.131809       16.966030
  Si           1.292720       19.144908       21.304309
  Si           3.045559        0.886158       23.052280
  Si           4.793530        6.972408       21.299440
  Si           3.040691       13.058658       19.551469
  Si           1.292720       23.458842       21.299440
  Si           3.045559       17.372592       19.551469
  Si           4.793530       11.286342       21.304309
  Si           3.040691        5.200092       23.052280
  Si           1.292720        9.126940       11.286342
  Si           3.045559        7.378970        5.200092
  Si           4.793530        9.131809       23.458842
  Si           3.040691       10.879780       17.372592
  Si           1.292720        9.131809        6.972408
  Si           3.045559       10.879780       13.058658
  Si           4.793530        9.126940       19.144908
  Si           3.040691        7.378970        0.886158
  Si          23.458842       13.465219        9.126940
  Si          17.372592       15.218059        7.378970
  Si          11.286342       16.966030        9.131809
  Si           5.200092       15.213190       10.879780
  Si          19.144908       13.465219        9.131809
  Si           0.886158       15.218059       10.879780
  Si           6.972408       16.966030        9.126940
  Si          13.058658       15.213190        7.378970
  Si          23.052280        5.200092        3.040691
  Si          21.299440       23.458842        1.292720
  Si          19.551469       17.372592        3.045559
  Si          21.304309       11.286342        4.793530
  Si          23.052280        0.886158        3.045559
  Si          21.299440        6.972408        4.793530
  Si          19.551469       13.058658        3.040691
  Si          21.304309       19.144908        1.292720
  Si          10.879780        3.045559       13.058658
  Si           9.126940        4.793530       19.144908
  Si           7.378970        3.040691        0.886158
  Si           9.131809        1.292720        6.972408
  Si          10.879780        3.040691       17.372592
  Si           9.126940        1.292720       11.286342
  Si           7.378970        3.045559        5.200092
  Si           9.131809        4.793530       23.458842
  Si          13.058658       23.052280       15.218059
  Si          19.144908       21.299440       16.966030
  Si           0.886158       19.551469       15.213190
  Si           6.972408       21.304309       13.465219
  Si          17.372592       23.052280       15.213190
  Si          11.286342       21.299440       13.465219
  Si           5.200092       19.551469       15.218059
  Si          23.458842       21.304309       16.966030
  Si          13.465219        6.972408       21.304309
  Si          15.218059       13.058658       23.052280
  Si          16.966030       19.144908       21.299440
  Si          15.213190        0.886158       19.551469
  Si          13.465219       11.286342       21.299440
  Si          15.218059        5.200092       19.551469
  Si          16.966030       23.458842       21.304309
  Si          15.213190       17.372592       23.052280
  Si          13.465219       21.299440       11.286342
  Si          15.218059       19.551469        5.200092
  Si          16.966030       21.304309       23.458842
  Si          15.213190       23.052280       17.372592
  Si          13.465219       21.304309        6.972408
  Si          15.218059       23.052280       13.058658
  Si          16.966030       21.299440       19.144908
  Si          15.213190       19.551469        0.886158
  Si          11.286342        1.292720        9.126940
  Si           5.200092        3.045559        7.378970
  Si          23.458842        4.793530        9.131809
  Si          17.372592        3.040691       10.879780
  Si           6.972408        1.292720        9.131809
  Si          13.058658        3.045559       10.879780
  Si          19.144908        4.793530        9.126940
  Si           0.886158        3.040691        7.378970
  Si          10.879780       17.372592        3.040691
  Si           9.126940       11.286342        1.292720
  Si           7.378970        5.200092        3.045559
  Si           9.131809       23.458842        4.793530
  Si          10.879780       13.058658        3.045559
  Si           9.126940       19.144908        4.793530
  Si           7.378970        0.886158        3.040691
  Si           9.131809        6.972408        1.292720
  Si          10.879780       15.218059        0.886158
  Si           9.126940       16.966030        6.972408
  Si           7.378970       15.213190       13.058658
  Si           9.131809       13.465219       19.144908
  Si          10.879780       15.213190        5.200092
  Si           9.126940       13.465219       23.458842
  Si           7.378970       15.218059       17.372592
  Si           9.131809       16.966030       11.286342
  Si          13.058658       10.879780        3.045559
  Si          19.144908        9.126940        4.793530
  Si           0.886158        7.378970        3.040691
  Si           6.972408        9.131809        1.292720
  Si          17.372592       10.879780        3.040691
  Si          11.286342        9.126940        1.292720
  Si           5.200092        7.378970        3.045559
  Si          23.458842        9.131809        4.793530
  Si          13.465219       19.144908        9.131809
  Si          15.218059        0.886158       10.879780
  Si          16.966030        6.972408        9.126940
  Si          15.213190       13.058658        7.378970
  Si          13.465219       23.458842        9.126940
  Si          15.218059       17.372592        7.378970
  Si          16.966030       11.286342        9.131809
  Si          15.213190        5.200092       10.879780
  Si          13.465219        9.126940       23.458842
  Si          15.218059        7.378970       17.372592
  Si          16.966030        9.131809       11.286342
  Si          15.213190       10.879780        5.200092
  Si          13.465219        9.131809       19.144908
  Si          15.218059       10.879780        0.886158
  Si          16.966030        9.126940        6.972408
  Si          15.213190        7.378970       13.058658
  Si          11.286342       13.465219       21.299440
  Si           5.200092       15.218059       19.551469
  Si          23.458842       16.966030       21.304309
  Si          17.372592       15.213190       23.052280
  Si           6.972408       13.465219       21.304309
  Si          13.058658       15.218059       23.052280
  Si          19.144908       16.966030       21.299440
  Si           0.886158       15.213190       19.551469
  Si          10.879780        5.200092       15.213190
  Si           9.126940       23.458842       13.465219
  Si           7.378970       17.372592       15.218059
  Si           9.131809       11.286342       16.966030
  Si          10.879780        0.886158       15.218059
  Si           9.126940        6.972408       16.966030
  Si           7.378970       13.058658       15.213190
  Si           9.131809       19.144908       13.465219
  O           13.191132       20.651417       21.867452
  O           12.436116       21.542336       23.790934
  O           13.964248       22.706604       22.535180
  C           12.100662       19.851174       22.299477
  C           11.989467       20.195158       23.750249
  C           13.261618       21.723218       22.714911
  H           12.304087       18.790057       22.133117
  H           11.210744       20.141092       21.731038
  H           10.966096       20.110768       24.125320
  H           12.653920       19.590120       24.376080
  O           22.770486       10.573098        1.564436
  O           20.762312       11.357281        0.919562
  O           22.410504       12.839232        1.515304
  C           22.044720        9.475750        1.030347
  C           20.629140        9.953615        1.086971
  C           22.016977       11.694507        1.348621
  H           22.207917        8.572590        1.624229
  H           22.386472        9.299640        0.005008
  H           20.007799        9.522644        0.297484
  H           20.161402        9.762752        2.058580
  O           13.919304        2.978970       14.830143
  O           15.704349        4.327658       14.588862
  O           14.377214        3.881514       12.770266
  C           14.402027        3.271152       16.133127
  C           15.800464        3.732527       15.874405
  C           14.642846        3.741908       13.954745
  H           14.362793        2.385383       16.772580
  H           13.775358        4.057246       16.567260
  H           16.148427        4.456685       16.615759
  H           16.512042        2.901904       15.820055
  O           21.404111       21.904463       22.493577
  O           23.180651       20.718274       21.786168
  O           21.239117       19.621256       22.328958
  C           22.359971       22.833840       22.004955
  C           23.629789       22.044695       22.020515
  C           21.882569       20.653597       22.213717
  H           22.407056       23.719251       22.644374
  H           22.066281       23.134578       20.993801
  H           24.332138       22.362618       21.245454
  H           24.129590       22.074957       22.994433
  O           23.957976       18.983933       10.348173
  O           22.845042       20.925449       10.583666
  O           23.393620       20.191035        8.479546
  C           23.543845       19.066969       11.703813
  C           23.267938       20.525959       11.878890
  C           23.398676       20.046807        9.692894
  H           24.326434       18.703329       12.374892
  H           22.646096       18.452909       11.830725
  H           22.490028       20.720752       12.621858
  H           24.167051       21.093563       12.140910
  O            4.325702        6.618097       15.522344
  O            4.004569        6.356011       17.734074
  O            6.129211        6.202821       16.879644
  C            2.986132        6.999370       15.798647
  C            2.723178        6.356088       17.122457
  C            4.929464        6.376169       16.726027
  H            2.309317        6.644855       15.016811
  H            2.939395        8.092324       15.847592
  H            2.001900        6.914048       17.725390
  H            2.385368        5.319039       17.024246
  O            6.661608        5.856355       12.039092
  O            6.788771        4.724799       13.979963
  O            8.188892        6.508094       13.623390
  C            5.542566        4.983747       12.088688
  C            5.952989        3.973801       13.111914
  C            7.295008        5.764231       13.248318
  H            5.351322        4.536807       11.109557
  H            4.665476        5.561370       12.398838
  H            5.101455        3.554690       13.654431
  H            6.543300        3.157959       12.681605
  O           11.167297       11.053265       13.183927
  O           11.526729        8.838287       13.015861
  O           13.244757       10.210184       13.674574
  C            9.901197       10.436560       13.002747
  C           10.259569        9.101909       12.432040
  C           12.085637       10.048705       13.323281
  H            9.271512       11.025958       12.331082
  H            9.411184       10.356659       13.978775
  H            9.537925        8.324202       12.695650
  H           10.377906        9.130073       11.343723
  O            7.906286       12.602505        9.374681
  O            6.376191       11.154290       10.024100
  O            8.248476       10.365715        8.935182
  C            7.579401       11.280015        9.397341
  C            9.152289       12.920362        8.745930
  C            5.874933        9.818386       10.136941
  H            9.978049       12.435186        9.275169
  H            9.291771       14.003442        8.795795
  H            9.134456       12.616462        7.694887
  H            4.912654        9.858844       10.654334
  H            6.563897        9.203733       10.724241
  H            5.721545        9.386257        9.143554
  O            6.429370       14.689324        4.160985
  O            5.490814       16.681409        4.056237
  O            7.790921       16.549031        4.127095
  C            6.684346       16.026963        4.115625
  C            7.581511       13.842573        4.227817
  C            5.571189       18.109480        4.003455
  H            8.204782       13.980482        3.339062
  H            7.239432       12.804776        4.258857
  H            8.152775       14.051536        5.137408
  H            4.553261       18.505934        3.959176
  H            6.110549       18.425489        3.105336
  H            6.059221       18.494870        4.903666
  O           16.419579       12.913446       14.183762
  O           15.045452       12.040544       15.670395
  O           16.623265       13.560525       16.386779
  C           16.084703       12.905851       15.504423
  C           17.504548       13.775988       13.826343
  C           14.561263       11.906293       17.010607
  H           17.254456       14.815453       14.059446
  H           17.668508       13.687657       12.749162
  H           18.417649       13.471505       14.346824
  H           13.735879       11.189349       17.003738
  H           14.188318       12.867716       17.376621
  H           15.352525       11.524502       17.662697
  O            3.862091       13.405305        6.697929
  O            2.319437       14.603747        5.676060
  O            4.356018       15.583748        6.128805
  C            3.591397       14.629111        6.163729
  C            5.168551       13.252794        7.262541
  C            1.864293       15.819774        5.073770
  H            5.932897       13.399660        6.493402
  H            5.253896       12.234993        7.652158
  H            5.309177       13.957732        8.087557
  H            0.838838       15.664798        4.727738
  H            2.490720       16.073786        4.213272
  H            1.868232       16.630770        5.808175
  O            6.396339       17.295487        0.973307
  O            6.742253       19.471723        1.041170
  O            8.568628       18.066406        0.991403
  C            7.360173       18.258100        1.000673
  C            6.871786       15.946058        0.930026
  C            7.612709       20.607402        1.075384
  H            7.460510       15.780995        0.022541
  H            6.004782       15.280497        0.911679
  H            7.465573       15.724983        1.822163
  H            6.994662       21.508731        1.105999
  H            8.232358       20.636903        0.173966
  H            8.237040       20.579133        1.973433
  O           10.180599        8.350881        7.180842
  O            9.343985        7.187944        8.856526
  O           11.501893        6.746264        8.177269
  C           10.450551        7.364908        8.081579
  C           11.243573        8.669991        6.276884
  C            9.451604        6.179060        9.866081
  H           12.117509        9.026105        6.830768
  H           10.898615        9.468429        5.614686
  H           11.499644        7.796254        5.669945
  H            8.504168        6.140171       10.410294
  H           10.250744        6.431203       10.569778
  H            9.633510        5.202420        9.407644
  O           11.067748        3.694120        3.851974
  O           12.210349        4.592776        5.509424
  O           11.659891        2.357965        5.634539
  C           11.647529        3.437070        5.057845
  C           10.421650        2.580191        3.226991
  C           12.869023        4.505051        6.777132
  H           11.146629        1.785301        3.027176
  H           10.002450        2.919833        2.276244
  H            9.607397        2.211676        3.858301
  H           13.272404        5.491833        7.019740
  H           13.696155        3.790505        6.725501
  H           12.156074        4.216211        7.555179
  O           16.510375       18.112108       12.679784
  O           15.452352       16.181013       12.571515
  O           16.208994       17.134509       10.614124
  C           16.071688       17.141683       11.829975
  C           17.190432       19.211099       12.064459
  C           14.924220       15.074828       11.832554
  H           18.089959       18.859552       11.550031
  H           17.486567       19.910783       12.850430
  H           16.522922       19.727301       11.367803
  H           14.458486       14.384184       12.540661
  H           15.729155       14.550634       11.308446
  H           14.163058       15.419913       11.126416
  Li          11.124726       22.043727       19.262290
  P           10.055833       23.320351       21.127148
  F            8.779841       24.111643       21.619189
  F           10.900551       24.371026       21.951123
  F            9.229668       22.155876       21.803794
  F            9.874435       24.364545       19.955332
  F           11.401137       22.531117       21.379469
  F            9.835202       22.350396       19.899586
  Li          20.144236       16.056603       15.100705
  P           18.317770       16.597575       16.719769
  F           17.916762       16.791425       18.235690
  F           16.878308       15.976495       16.523273
  F           18.572664       18.146858       16.896272
  F           18.832303       15.241606       17.346667
  F           18.084813       16.798475       15.170005
  F           19.861678       16.690870       16.397212
  Li           3.996401       14.189846       13.589075
  P            3.122986       15.488086       15.538875
  F            1.978638       16.429028       16.087961
  F            4.112450       16.342709       16.425995
  F            2.126914       14.419902       16.141556
  F            3.107462       16.622347       14.439053
  F            4.332313       14.489836       15.732336
  F            2.764720       14.645294       14.251339
  Li           1.693712        2.110233       16.988386
  P            1.175570        2.765223       14.632009
  F            0.984306        3.952442       13.607152
  F            0.017459        2.033201       13.845037
  F            2.645015        2.908465       14.069326
  F            0.114762        3.655830       15.392210
  F            1.445471        1.250086       14.989656
  F            1.973819        3.113673       15.950257
